p cnf 5251 13924
-60 2 0
-60 59 0
-2 -59 60 0
-61 3 0
-61 58 0
-3 -58 61 0
-62 4 0
-62 57 0
-4 -57 62 0
-63 5 0
-63 56 0
-5 -56 63 0
-64 6 0
-64 55 0
-6 -55 64 0
-65 7 0
-65 54 0
-7 -54 65 0
-66 8 0
-66 53 0
-8 -53 66 0
-67 9 0
-67 52 0
-9 -52 67 0
-68 10 0
-68 51 0
-10 -51 68 0
-69 11 0
-69 50 0
-11 -50 69 0
-70 12 0
-70 49 0
-12 -49 70 0
-71 13 0
-71 48 0
-13 -48 71 0
-72 14 0
-72 47 0
-14 -47 72 0
-73 15 0
-73 46 0
-15 -46 73 0
-74 16 0
-74 45 0
-16 -45 74 0
-75 17 0
-75 44 0
-17 -44 75 0
-76 18 0
-76 43 0
-18 -43 76 0
-77 19 0
-77 42 0
-19 -42 77 0
-78 20 0
-78 41 0
-20 -41 78 0
-79 21 0
-79 40 0
-21 -40 79 0
-80 22 0
-80 39 0
-22 -39 80 0
-81 23 0
-81 38 0
-23 -38 81 0
-82 24 0
-82 37 0
-24 -37 82 0
-83 25 0
-83 36 0
-25 -36 83 0
-84 26 0
-84 35 0
-26 -35 84 0
-85 27 0
-85 34 0
-27 -34 85 0
-86 28 0
-86 33 0
-28 -33 86 0
-87 29 0
-87 32 0
-29 -32 87 0
-88 30 0
-88 31 0
-30 -31 88 0
-1 60 61 62 63 64 65 66 67 68 69 70 71 72 73 74 75 76 77 78 79 80 81 82 83 84 85 86 87 88 0
1 -60 61 62 63 64 65 66 67 68 69 70 71 72 73 74 75 76 77 78 79 80 81 82 83 84 85 86 87 88 0
1 -61 60 62 63 64 65 66 67 68 69 70 71 72 73 74 75 76 77 78 79 80 81 82 83 84 85 86 87 88 0
1 -62 60 61 63 64 65 66 67 68 69 70 71 72 73 74 75 76 77 78 79 80 81 82 83 84 85 86 87 88 0
1 -63 60 61 62 64 65 66 67 68 69 70 71 72 73 74 75 76 77 78 79 80 81 82 83 84 85 86 87 88 0
1 -64 60 61 62 63 65 66 67 68 69 70 71 72 73 74 75 76 77 78 79 80 81 82 83 84 85 86 87 88 0
1 -65 60 61 62 63 64 66 67 68 69 70 71 72 73 74 75 76 77 78 79 80 81 82 83 84 85 86 87 88 0
1 -66 60 61 62 63 64 65 67 68 69 70 71 72 73 74 75 76 77 78 79 80 81 82 83 84 85 86 87 88 0
1 -67 60 61 62 63 64 65 66 68 69 70 71 72 73 74 75 76 77 78 79 80 81 82 83 84 85 86 87 88 0
1 -68 60 61 62 63 64 65 66 67 69 70 71 72 73 74 75 76 77 78 79 80 81 82 83 84 85 86 87 88 0
1 -69 60 61 62 63 64 65 66 67 68 70 71 72 73 74 75 76 77 78 79 80 81 82 83 84 85 86 87 88 0
1 -70 60 61 62 63 64 65 66 67 68 69 71 72 73 74 75 76 77 78 79 80 81 82 83 84 85 86 87 88 0
1 -71 60 61 62 63 64 65 66 67 68 69 70 72 73 74 75 76 77 78 79 80 81 82 83 84 85 86 87 88 0
1 -72 60 61 62 63 64 65 66 67 68 69 70 71 73 74 75 76 77 78 79 80 81 82 83 84 85 86 87 88 0
1 -73 60 61 62 63 64 65 66 67 68 69 70 71 72 74 75 76 77 78 79 80 81 82 83 84 85 86 87 88 0
1 -74 60 61 62 63 64 65 66 67 68 69 70 71 72 73 75 76 77 78 79 80 81 82 83 84 85 86 87 88 0
1 -75 60 61 62 63 64 65 66 67 68 69 70 71 72 73 74 76 77 78 79 80 81 82 83 84 85 86 87 88 0
1 -76 60 61 62 63 64 65 66 67 68 69 70 71 72 73 74 75 77 78 79 80 81 82 83 84 85 86 87 88 0
1 -77 60 61 62 63 64 65 66 67 68 69 70 71 72 73 74 75 76 78 79 80 81 82 83 84 85 86 87 88 0
1 -78 60 61 62 63 64 65 66 67 68 69 70 71 72 73 74 75 76 77 79 80 81 82 83 84 85 86 87 88 0
1 -79 60 61 62 63 64 65 66 67 68 69 70 71 72 73 74 75 76 77 78 80 81 82 83 84 85 86 87 88 0
1 -80 60 61 62 63 64 65 66 67 68 69 70 71 72 73 74 75 76 77 78 79 81 82 83 84 85 86 87 88 0
1 -81 60 61 62 63 64 65 66 67 68 69 70 71 72 73 74 75 76 77 78 79 80 82 83 84 85 86 87 88 0
1 -82 60 61 62 63 64 65 66 67 68 69 70 71 72 73 74 75 76 77 78 79 80 81 83 84 85 86 87 88 0
1 -83 60 61 62 63 64 65 66 67 68 69 70 71 72 73 74 75 76 77 78 79 80 81 82 84 85 86 87 88 0
1 -84 60 61 62 63 64 65 66 67 68 69 70 71 72 73 74 75 76 77 78 79 80 81 82 83 85 86 87 88 0
1 -85 60 61 62 63 64 65 66 67 68 69 70 71 72 73 74 75 76 77 78 79 80 81 82 83 84 86 87 88 0
1 -86 60 61 62 63 64 65 66 67 68 69 70 71 72 73 74 75 76 77 78 79 80 81 82 83 84 85 87 88 0
1 -87 60 61 62 63 64 65 66 67 68 69 70 71 72 73 74 75 76 77 78 79 80 81 82 83 84 85 86 88 0
1 -88 60 61 62 63 64 65 66 67 68 69 70 71 72 73 74 75 76 77 78 79 80 81 82 83 84 85 86 87 0
-89 1 0
-89 2 0
-1 -2 89 0
-90 3 0
-90 59 0
-3 -59 90 0
-91 4 0
-91 58 0
-4 -58 91 0
-92 5 0
-92 57 0
-5 -57 92 0
-93 6 0
-93 56 0
-6 -56 93 0
-94 7 0
-94 55 0
-7 -55 94 0
-95 8 0
-95 54 0
-8 -54 95 0
-96 9 0
-96 53 0
-9 -53 96 0
-97 10 0
-97 52 0
-10 -52 97 0
-98 11 0
-98 51 0
-11 -51 98 0
-99 12 0
-99 50 0
-12 -50 99 0
-100 13 0
-100 49 0
-13 -49 100 0
-101 14 0
-101 48 0
-14 -48 101 0
-102 15 0
-102 47 0
-15 -47 102 0
-103 16 0
-103 46 0
-16 -46 103 0
-104 17 0
-104 45 0
-17 -45 104 0
-105 18 0
-105 44 0
-18 -44 105 0
-106 19 0
-106 43 0
-19 -43 106 0
-107 20 0
-107 42 0
-20 -42 107 0
-108 21 0
-108 41 0
-21 -41 108 0
-109 22 0
-109 40 0
-22 -40 109 0
-110 23 0
-110 39 0
-23 -39 110 0
-111 24 0
-111 38 0
-24 -38 111 0
-112 25 0
-112 37 0
-25 -37 112 0
-113 26 0
-113 36 0
-26 -36 113 0
-114 27 0
-114 35 0
-27 -35 114 0
-115 28 0
-115 34 0
-28 -34 115 0
-116 29 0
-116 33 0
-29 -33 116 0
-117 30 0
-117 32 0
-30 -32 117 0
-31 89 90 91 92 93 94 95 96 97 98 99 100 101 102 103 104 105 106 107 108 109 110 111 112 113 114 115 116 117 0
31 -89 90 91 92 93 94 95 96 97 98 99 100 101 102 103 104 105 106 107 108 109 110 111 112 113 114 115 116 117 0
31 -90 89 91 92 93 94 95 96 97 98 99 100 101 102 103 104 105 106 107 108 109 110 111 112 113 114 115 116 117 0
31 -91 89 90 92 93 94 95 96 97 98 99 100 101 102 103 104 105 106 107 108 109 110 111 112 113 114 115 116 117 0
31 -92 89 90 91 93 94 95 96 97 98 99 100 101 102 103 104 105 106 107 108 109 110 111 112 113 114 115 116 117 0
31 -93 89 90 91 92 94 95 96 97 98 99 100 101 102 103 104 105 106 107 108 109 110 111 112 113 114 115 116 117 0
31 -94 89 90 91 92 93 95 96 97 98 99 100 101 102 103 104 105 106 107 108 109 110 111 112 113 114 115 116 117 0
31 -95 89 90 91 92 93 94 96 97 98 99 100 101 102 103 104 105 106 107 108 109 110 111 112 113 114 115 116 117 0
31 -96 89 90 91 92 93 94 95 97 98 99 100 101 102 103 104 105 106 107 108 109 110 111 112 113 114 115 116 117 0
31 -97 89 90 91 92 93 94 95 96 98 99 100 101 102 103 104 105 106 107 108 109 110 111 112 113 114 115 116 117 0
31 -98 89 90 91 92 93 94 95 96 97 99 100 101 102 103 104 105 106 107 108 109 110 111 112 113 114 115 116 117 0
31 -99 89 90 91 92 93 94 95 96 97 98 100 101 102 103 104 105 106 107 108 109 110 111 112 113 114 115 116 117 0
31 -100 89 90 91 92 93 94 95 96 97 98 99 101 102 103 104 105 106 107 108 109 110 111 112 113 114 115 116 117 0
31 -101 89 90 91 92 93 94 95 96 97 98 99 100 102 103 104 105 106 107 108 109 110 111 112 113 114 115 116 117 0
31 -102 89 90 91 92 93 94 95 96 97 98 99 100 101 103 104 105 106 107 108 109 110 111 112 113 114 115 116 117 0
31 -103 89 90 91 92 93 94 95 96 97 98 99 100 101 102 104 105 106 107 108 109 110 111 112 113 114 115 116 117 0
31 -104 89 90 91 92 93 94 95 96 97 98 99 100 101 102 103 105 106 107 108 109 110 111 112 113 114 115 116 117 0
31 -105 89 90 91 92 93 94 95 96 97 98 99 100 101 102 103 104 106 107 108 109 110 111 112 113 114 115 116 117 0
31 -106 89 90 91 92 93 94 95 96 97 98 99 100 101 102 103 104 105 107 108 109 110 111 112 113 114 115 116 117 0
31 -107 89 90 91 92 93 94 95 96 97 98 99 100 101 102 103 104 105 106 108 109 110 111 112 113 114 115 116 117 0
31 -108 89 90 91 92 93 94 95 96 97 98 99 100 101 102 103 104 105 106 107 109 110 111 112 113 114 115 116 117 0
31 -109 89 90 91 92 93 94 95 96 97 98 99 100 101 102 103 104 105 106 107 108 110 111 112 113 114 115 116 117 0
31 -110 89 90 91 92 93 94 95 96 97 98 99 100 101 102 103 104 105 106 107 108 109 111 112 113 114 115 116 117 0
31 -111 89 90 91 92 93 94 95 96 97 98 99 100 101 102 103 104 105 106 107 108 109 110 112 113 114 115 116 117 0
31 -112 89 90 91 92 93 94 95 96 97 98 99 100 101 102 103 104 105 106 107 108 109 110 111 113 114 115 116 117 0
31 -113 89 90 91 92 93 94 95 96 97 98 99 100 101 102 103 104 105 106 107 108 109 110 111 112 114 115 116 117 0
31 -114 89 90 91 92 93 94 95 96 97 98 99 100 101 102 103 104 105 106 107 108 109 110 111 112 113 115 116 117 0
31 -115 89 90 91 92 93 94 95 96 97 98 99 100 101 102 103 104 105 106 107 108 109 110 111 112 113 114 116 117 0
31 -116 89 90 91 92 93 94 95 96 97 98 99 100 101 102 103 104 105 106 107 108 109 110 111 112 113 114 115 117 0
31 -117 89 90 91 92 93 94 95 96 97 98 99 100 101 102 103 104 105 106 107 108 109 110 111 112 113 114 115 116 0
-118 1 0
-118 3 0
-1 -3 118 0
-119 4 0
-119 59 0
-4 -59 119 0
-120 5 0
-120 58 0
-5 -58 120 0
-121 6 0
-121 57 0
-6 -57 121 0
-122 7 0
-122 56 0
-7 -56 122 0
-123 8 0
-123 55 0
-8 -55 123 0
-124 9 0
-124 54 0
-9 -54 124 0
-125 10 0
-125 53 0
-10 -53 125 0
-126 11 0
-126 52 0
-11 -52 126 0
-127 12 0
-127 51 0
-12 -51 127 0
-128 13 0
-128 50 0
-13 -50 128 0
-129 14 0
-129 49 0
-14 -49 129 0
-130 15 0
-130 48 0
-15 -48 130 0
-131 16 0
-131 47 0
-16 -47 131 0
-132 17 0
-132 46 0
-17 -46 132 0
-133 18 0
-133 45 0
-18 -45 133 0
-134 19 0
-134 44 0
-19 -44 134 0
-135 20 0
-135 43 0
-20 -43 135 0
-136 21 0
-136 42 0
-21 -42 136 0
-137 22 0
-137 41 0
-22 -41 137 0
-138 23 0
-138 40 0
-23 -40 138 0
-139 24 0
-139 39 0
-24 -39 139 0
-140 25 0
-140 38 0
-25 -38 140 0
-141 26 0
-141 37 0
-26 -37 141 0
-142 27 0
-142 36 0
-27 -36 142 0
-143 28 0
-143 35 0
-28 -35 143 0
-144 29 0
-144 34 0
-29 -34 144 0
-145 30 0
-145 33 0
-30 -33 145 0
-146 31 0
-146 32 0
-31 -32 146 0
-2 118 119 120 121 122 123 124 125 126 127 128 129 130 131 132 133 134 135 136 137 138 139 140 141 142 143 144 145 146 0
2 -118 119 120 121 122 123 124 125 126 127 128 129 130 131 132 133 134 135 136 137 138 139 140 141 142 143 144 145 146 0
2 -119 118 120 121 122 123 124 125 126 127 128 129 130 131 132 133 134 135 136 137 138 139 140 141 142 143 144 145 146 0
2 -120 118 119 121 122 123 124 125 126 127 128 129 130 131 132 133 134 135 136 137 138 139 140 141 142 143 144 145 146 0
2 -121 118 119 120 122 123 124 125 126 127 128 129 130 131 132 133 134 135 136 137 138 139 140 141 142 143 144 145 146 0
2 -122 118 119 120 121 123 124 125 126 127 128 129 130 131 132 133 134 135 136 137 138 139 140 141 142 143 144 145 146 0
2 -123 118 119 120 121 122 124 125 126 127 128 129 130 131 132 133 134 135 136 137 138 139 140 141 142 143 144 145 146 0
2 -124 118 119 120 121 122 123 125 126 127 128 129 130 131 132 133 134 135 136 137 138 139 140 141 142 143 144 145 146 0
2 -125 118 119 120 121 122 123 124 126 127 128 129 130 131 132 133 134 135 136 137 138 139 140 141 142 143 144 145 146 0
2 -126 118 119 120 121 122 123 124 125 127 128 129 130 131 132 133 134 135 136 137 138 139 140 141 142 143 144 145 146 0
2 -127 118 119 120 121 122 123 124 125 126 128 129 130 131 132 133 134 135 136 137 138 139 140 141 142 143 144 145 146 0
2 -128 118 119 120 121 122 123 124 125 126 127 129 130 131 132 133 134 135 136 137 138 139 140 141 142 143 144 145 146 0
2 -129 118 119 120 121 122 123 124 125 126 127 128 130 131 132 133 134 135 136 137 138 139 140 141 142 143 144 145 146 0
2 -130 118 119 120 121 122 123 124 125 126 127 128 129 131 132 133 134 135 136 137 138 139 140 141 142 143 144 145 146 0
2 -131 118 119 120 121 122 123 124 125 126 127 128 129 130 132 133 134 135 136 137 138 139 140 141 142 143 144 145 146 0
2 -132 118 119 120 121 122 123 124 125 126 127 128 129 130 131 133 134 135 136 137 138 139 140 141 142 143 144 145 146 0
2 -133 118 119 120 121 122 123 124 125 126 127 128 129 130 131 132 134 135 136 137 138 139 140 141 142 143 144 145 146 0
2 -134 118 119 120 121 122 123 124 125 126 127 128 129 130 131 132 133 135 136 137 138 139 140 141 142 143 144 145 146 0
2 -135 118 119 120 121 122 123 124 125 126 127 128 129 130 131 132 133 134 136 137 138 139 140 141 142 143 144 145 146 0
2 -136 118 119 120 121 122 123 124 125 126 127 128 129 130 131 132 133 134 135 137 138 139 140 141 142 143 144 145 146 0
2 -137 118 119 120 121 122 123 124 125 126 127 128 129 130 131 132 133 134 135 136 138 139 140 141 142 143 144 145 146 0
2 -138 118 119 120 121 122 123 124 125 126 127 128 129 130 131 132 133 134 135 136 137 139 140 141 142 143 144 145 146 0
2 -139 118 119 120 121 122 123 124 125 126 127 128 129 130 131 132 133 134 135 136 137 138 140 141 142 143 144 145 146 0
2 -140 118 119 120 121 122 123 124 125 126 127 128 129 130 131 132 133 134 135 136 137 138 139 141 142 143 144 145 146 0
2 -141 118 119 120 121 122 123 124 125 126 127 128 129 130 131 132 133 134 135 136 137 138 139 140 142 143 144 145 146 0
2 -142 118 119 120 121 122 123 124 125 126 127 128 129 130 131 132 133 134 135 136 137 138 139 140 141 143 144 145 146 0
2 -143 118 119 120 121 122 123 124 125 126 127 128 129 130 131 132 133 134 135 136 137 138 139 140 141 142 144 145 146 0
2 -144 118 119 120 121 122 123 124 125 126 127 128 129 130 131 132 133 134 135 136 137 138 139 140 141 142 143 145 146 0
2 -145 118 119 120 121 122 123 124 125 126 127 128 129 130 131 132 133 134 135 136 137 138 139 140 141 142 143 144 146 0
2 -146 118 119 120 121 122 123 124 125 126 127 128 129 130 131 132 133 134 135 136 137 138 139 140 141 142 143 144 145 0
-147 1 0
-147 4 0
-1 -4 147 0
-148 2 0
-148 3 0
-2 -3 148 0
-149 5 0
-149 59 0
-5 -59 149 0
-150 6 0
-150 58 0
-6 -58 150 0
-151 7 0
-151 57 0
-7 -57 151 0
-152 8 0
-152 56 0
-8 -56 152 0
-153 9 0
-153 55 0
-9 -55 153 0
-154 10 0
-154 54 0
-10 -54 154 0
-155 11 0
-155 53 0
-11 -53 155 0
-156 12 0
-156 52 0
-12 -52 156 0
-157 13 0
-157 51 0
-13 -51 157 0
-158 14 0
-158 50 0
-14 -50 158 0
-159 15 0
-159 49 0
-15 -49 159 0
-160 16 0
-160 48 0
-16 -48 160 0
-161 17 0
-161 47 0
-17 -47 161 0
-162 18 0
-162 46 0
-18 -46 162 0
-163 19 0
-163 45 0
-19 -45 163 0
-164 20 0
-164 44 0
-20 -44 164 0
-165 21 0
-165 43 0
-21 -43 165 0
-166 22 0
-166 42 0
-22 -42 166 0
-167 23 0
-167 41 0
-23 -41 167 0
-168 24 0
-168 40 0
-24 -40 168 0
-169 25 0
-169 39 0
-25 -39 169 0
-170 26 0
-170 38 0
-26 -38 170 0
-171 27 0
-171 37 0
-27 -37 171 0
-172 28 0
-172 36 0
-28 -36 172 0
-173 29 0
-173 35 0
-29 -35 173 0
-174 30 0
-174 34 0
-30 -34 174 0
-175 31 0
-175 33 0
-31 -33 175 0
-32 147 148 149 150 151 152 153 154 155 156 157 158 159 160 161 162 163 164 165 166 167 168 169 170 171 172 173 174 175 0
32 -147 148 149 150 151 152 153 154 155 156 157 158 159 160 161 162 163 164 165 166 167 168 169 170 171 172 173 174 175 0
32 -148 147 149 150 151 152 153 154 155 156 157 158 159 160 161 162 163 164 165 166 167 168 169 170 171 172 173 174 175 0
32 -149 147 148 150 151 152 153 154 155 156 157 158 159 160 161 162 163 164 165 166 167 168 169 170 171 172 173 174 175 0
32 -150 147 148 149 151 152 153 154 155 156 157 158 159 160 161 162 163 164 165 166 167 168 169 170 171 172 173 174 175 0
32 -151 147 148 149 150 152 153 154 155 156 157 158 159 160 161 162 163 164 165 166 167 168 169 170 171 172 173 174 175 0
32 -152 147 148 149 150 151 153 154 155 156 157 158 159 160 161 162 163 164 165 166 167 168 169 170 171 172 173 174 175 0
32 -153 147 148 149 150 151 152 154 155 156 157 158 159 160 161 162 163 164 165 166 167 168 169 170 171 172 173 174 175 0
32 -154 147 148 149 150 151 152 153 155 156 157 158 159 160 161 162 163 164 165 166 167 168 169 170 171 172 173 174 175 0
32 -155 147 148 149 150 151 152 153 154 156 157 158 159 160 161 162 163 164 165 166 167 168 169 170 171 172 173 174 175 0
32 -156 147 148 149 150 151 152 153 154 155 157 158 159 160 161 162 163 164 165 166 167 168 169 170 171 172 173 174 175 0
32 -157 147 148 149 150 151 152 153 154 155 156 158 159 160 161 162 163 164 165 166 167 168 169 170 171 172 173 174 175 0
32 -158 147 148 149 150 151 152 153 154 155 156 157 159 160 161 162 163 164 165 166 167 168 169 170 171 172 173 174 175 0
32 -159 147 148 149 150 151 152 153 154 155 156 157 158 160 161 162 163 164 165 166 167 168 169 170 171 172 173 174 175 0
32 -160 147 148 149 150 151 152 153 154 155 156 157 158 159 161 162 163 164 165 166 167 168 169 170 171 172 173 174 175 0
32 -161 147 148 149 150 151 152 153 154 155 156 157 158 159 160 162 163 164 165 166 167 168 169 170 171 172 173 174 175 0
32 -162 147 148 149 150 151 152 153 154 155 156 157 158 159 160 161 163 164 165 166 167 168 169 170 171 172 173 174 175 0
32 -163 147 148 149 150 151 152 153 154 155 156 157 158 159 160 161 162 164 165 166 167 168 169 170 171 172 173 174 175 0
32 -164 147 148 149 150 151 152 153 154 155 156 157 158 159 160 161 162 163 165 166 167 168 169 170 171 172 173 174 175 0
32 -165 147 148 149 150 151 152 153 154 155 156 157 158 159 160 161 162 163 164 166 167 168 169 170 171 172 173 174 175 0
32 -166 147 148 149 150 151 152 153 154 155 156 157 158 159 160 161 162 163 164 165 167 168 169 170 171 172 173 174 175 0
32 -167 147 148 149 150 151 152 153 154 155 156 157 158 159 160 161 162 163 164 165 166 168 169 170 171 172 173 174 175 0
32 -168 147 148 149 150 151 152 153 154 155 156 157 158 159 160 161 162 163 164 165 166 167 169 170 171 172 173 174 175 0
32 -169 147 148 149 150 151 152 153 154 155 156 157 158 159 160 161 162 163 164 165 166 167 168 170 171 172 173 174 175 0
32 -170 147 148 149 150 151 152 153 154 155 156 157 158 159 160 161 162 163 164 165 166 167 168 169 171 172 173 174 175 0
32 -171 147 148 149 150 151 152 153 154 155 156 157 158 159 160 161 162 163 164 165 166 167 168 169 170 172 173 174 175 0
32 -172 147 148 149 150 151 152 153 154 155 156 157 158 159 160 161 162 163 164 165 166 167 168 169 170 171 173 174 175 0
32 -173 147 148 149 150 151 152 153 154 155 156 157 158 159 160 161 162 163 164 165 166 167 168 169 170 171 172 174 175 0
32 -174 147 148 149 150 151 152 153 154 155 156 157 158 159 160 161 162 163 164 165 166 167 168 169 170 171 172 173 175 0
32 -175 147 148 149 150 151 152 153 154 155 156 157 158 159 160 161 162 163 164 165 166 167 168 169 170 171 172 173 174 0
-176 1 0
-176 5 0
-1 -5 176 0
-177 2 0
-177 4 0
-2 -4 177 0
-178 6 0
-178 59 0
-6 -59 178 0
-179 7 0
-179 58 0
-7 -58 179 0
-180 8 0
-180 57 0
-8 -57 180 0
-181 9 0
-181 56 0
-9 -56 181 0
-182 10 0
-182 55 0
-10 -55 182 0
-183 11 0
-183 54 0
-11 -54 183 0
-184 12 0
-184 53 0
-12 -53 184 0
-185 13 0
-185 52 0
-13 -52 185 0
-186 14 0
-186 51 0
-14 -51 186 0
-187 15 0
-187 50 0
-15 -50 187 0
-188 16 0
-188 49 0
-16 -49 188 0
-189 17 0
-189 48 0
-17 -48 189 0
-190 18 0
-190 47 0
-18 -47 190 0
-191 19 0
-191 46 0
-19 -46 191 0
-192 20 0
-192 45 0
-20 -45 192 0
-193 21 0
-193 44 0
-21 -44 193 0
-194 22 0
-194 43 0
-22 -43 194 0
-195 23 0
-195 42 0
-23 -42 195 0
-196 24 0
-196 41 0
-24 -41 196 0
-197 25 0
-197 40 0
-25 -40 197 0
-198 26 0
-198 39 0
-26 -39 198 0
-199 27 0
-199 38 0
-27 -38 199 0
-200 28 0
-200 37 0
-28 -37 200 0
-201 29 0
-201 36 0
-29 -36 201 0
-202 30 0
-202 35 0
-30 -35 202 0
-203 31 0
-203 34 0
-31 -34 203 0
-204 32 0
-204 33 0
-32 -33 204 0
-3 176 177 178 179 180 181 182 183 184 185 186 187 188 189 190 191 192 193 194 195 196 197 198 199 200 201 202 203 204 0
3 -176 177 178 179 180 181 182 183 184 185 186 187 188 189 190 191 192 193 194 195 196 197 198 199 200 201 202 203 204 0
3 -177 176 178 179 180 181 182 183 184 185 186 187 188 189 190 191 192 193 194 195 196 197 198 199 200 201 202 203 204 0
3 -178 176 177 179 180 181 182 183 184 185 186 187 188 189 190 191 192 193 194 195 196 197 198 199 200 201 202 203 204 0
3 -179 176 177 178 180 181 182 183 184 185 186 187 188 189 190 191 192 193 194 195 196 197 198 199 200 201 202 203 204 0
3 -180 176 177 178 179 181 182 183 184 185 186 187 188 189 190 191 192 193 194 195 196 197 198 199 200 201 202 203 204 0
3 -181 176 177 178 179 180 182 183 184 185 186 187 188 189 190 191 192 193 194 195 196 197 198 199 200 201 202 203 204 0
3 -182 176 177 178 179 180 181 183 184 185 186 187 188 189 190 191 192 193 194 195 196 197 198 199 200 201 202 203 204 0
3 -183 176 177 178 179 180 181 182 184 185 186 187 188 189 190 191 192 193 194 195 196 197 198 199 200 201 202 203 204 0
3 -184 176 177 178 179 180 181 182 183 185 186 187 188 189 190 191 192 193 194 195 196 197 198 199 200 201 202 203 204 0
3 -185 176 177 178 179 180 181 182 183 184 186 187 188 189 190 191 192 193 194 195 196 197 198 199 200 201 202 203 204 0
3 -186 176 177 178 179 180 181 182 183 184 185 187 188 189 190 191 192 193 194 195 196 197 198 199 200 201 202 203 204 0
3 -187 176 177 178 179 180 181 182 183 184 185 186 188 189 190 191 192 193 194 195 196 197 198 199 200 201 202 203 204 0
3 -188 176 177 178 179 180 181 182 183 184 185 186 187 189 190 191 192 193 194 195 196 197 198 199 200 201 202 203 204 0
3 -189 176 177 178 179 180 181 182 183 184 185 186 187 188 190 191 192 193 194 195 196 197 198 199 200 201 202 203 204 0
3 -190 176 177 178 179 180 181 182 183 184 185 186 187 188 189 191 192 193 194 195 196 197 198 199 200 201 202 203 204 0
3 -191 176 177 178 179 180 181 182 183 184 185 186 187 188 189 190 192 193 194 195 196 197 198 199 200 201 202 203 204 0
3 -192 176 177 178 179 180 181 182 183 184 185 186 187 188 189 190 191 193 194 195 196 197 198 199 200 201 202 203 204 0
3 -193 176 177 178 179 180 181 182 183 184 185 186 187 188 189 190 191 192 194 195 196 197 198 199 200 201 202 203 204 0
3 -194 176 177 178 179 180 181 182 183 184 185 186 187 188 189 190 191 192 193 195 196 197 198 199 200 201 202 203 204 0
3 -195 176 177 178 179 180 181 182 183 184 185 186 187 188 189 190 191 192 193 194 196 197 198 199 200 201 202 203 204 0
3 -196 176 177 178 179 180 181 182 183 184 185 186 187 188 189 190 191 192 193 194 195 197 198 199 200 201 202 203 204 0
3 -197 176 177 178 179 180 181 182 183 184 185 186 187 188 189 190 191 192 193 194 195 196 198 199 200 201 202 203 204 0
3 -198 176 177 178 179 180 181 182 183 184 185 186 187 188 189 190 191 192 193 194 195 196 197 199 200 201 202 203 204 0
3 -199 176 177 178 179 180 181 182 183 184 185 186 187 188 189 190 191 192 193 194 195 196 197 198 200 201 202 203 204 0
3 -200 176 177 178 179 180 181 182 183 184 185 186 187 188 189 190 191 192 193 194 195 196 197 198 199 201 202 203 204 0
3 -201 176 177 178 179 180 181 182 183 184 185 186 187 188 189 190 191 192 193 194 195 196 197 198 199 200 202 203 204 0
3 -202 176 177 178 179 180 181 182 183 184 185 186 187 188 189 190 191 192 193 194 195 196 197 198 199 200 201 203 204 0
3 -203 176 177 178 179 180 181 182 183 184 185 186 187 188 189 190 191 192 193 194 195 196 197 198 199 200 201 202 204 0
3 -204 176 177 178 179 180 181 182 183 184 185 186 187 188 189 190 191 192 193 194 195 196 197 198 199 200 201 202 203 0
-205 1 0
-205 6 0
-1 -6 205 0
-206 2 0
-206 5 0
-2 -5 206 0
-207 3 0
-207 4 0
-3 -4 207 0
-208 7 0
-208 59 0
-7 -59 208 0
-209 8 0
-209 58 0
-8 -58 209 0
-210 9 0
-210 57 0
-9 -57 210 0
-211 10 0
-211 56 0
-10 -56 211 0
-212 11 0
-212 55 0
-11 -55 212 0
-213 12 0
-213 54 0
-12 -54 213 0
-214 13 0
-214 53 0
-13 -53 214 0
-215 14 0
-215 52 0
-14 -52 215 0
-216 15 0
-216 51 0
-15 -51 216 0
-217 16 0
-217 50 0
-16 -50 217 0
-218 17 0
-218 49 0
-17 -49 218 0
-219 18 0
-219 48 0
-18 -48 219 0
-220 19 0
-220 47 0
-19 -47 220 0
-221 20 0
-221 46 0
-20 -46 221 0
-222 21 0
-222 45 0
-21 -45 222 0
-223 22 0
-223 44 0
-22 -44 223 0
-224 23 0
-224 43 0
-23 -43 224 0
-225 24 0
-225 42 0
-24 -42 225 0
-226 25 0
-226 41 0
-25 -41 226 0
-227 26 0
-227 40 0
-26 -40 227 0
-228 27 0
-228 39 0
-27 -39 228 0
-229 28 0
-229 38 0
-28 -38 229 0
-230 29 0
-230 37 0
-29 -37 230 0
-231 30 0
-231 36 0
-30 -36 231 0
-232 31 0
-232 35 0
-31 -35 232 0
-233 32 0
-233 34 0
-32 -34 233 0
-33 205 206 207 208 209 210 211 212 213 214 215 216 217 218 219 220 221 222 223 224 225 226 227 228 229 230 231 232 233 0
33 -205 206 207 208 209 210 211 212 213 214 215 216 217 218 219 220 221 222 223 224 225 226 227 228 229 230 231 232 233 0
33 -206 205 207 208 209 210 211 212 213 214 215 216 217 218 219 220 221 222 223 224 225 226 227 228 229 230 231 232 233 0
33 -207 205 206 208 209 210 211 212 213 214 215 216 217 218 219 220 221 222 223 224 225 226 227 228 229 230 231 232 233 0
33 -208 205 206 207 209 210 211 212 213 214 215 216 217 218 219 220 221 222 223 224 225 226 227 228 229 230 231 232 233 0
33 -209 205 206 207 208 210 211 212 213 214 215 216 217 218 219 220 221 222 223 224 225 226 227 228 229 230 231 232 233 0
33 -210 205 206 207 208 209 211 212 213 214 215 216 217 218 219 220 221 222 223 224 225 226 227 228 229 230 231 232 233 0
33 -211 205 206 207 208 209 210 212 213 214 215 216 217 218 219 220 221 222 223 224 225 226 227 228 229 230 231 232 233 0
33 -212 205 206 207 208 209 210 211 213 214 215 216 217 218 219 220 221 222 223 224 225 226 227 228 229 230 231 232 233 0
33 -213 205 206 207 208 209 210 211 212 214 215 216 217 218 219 220 221 222 223 224 225 226 227 228 229 230 231 232 233 0
33 -214 205 206 207 208 209 210 211 212 213 215 216 217 218 219 220 221 222 223 224 225 226 227 228 229 230 231 232 233 0
33 -215 205 206 207 208 209 210 211 212 213 214 216 217 218 219 220 221 222 223 224 225 226 227 228 229 230 231 232 233 0
33 -216 205 206 207 208 209 210 211 212 213 214 215 217 218 219 220 221 222 223 224 225 226 227 228 229 230 231 232 233 0
33 -217 205 206 207 208 209 210 211 212 213 214 215 216 218 219 220 221 222 223 224 225 226 227 228 229 230 231 232 233 0
33 -218 205 206 207 208 209 210 211 212 213 214 215 216 217 219 220 221 222 223 224 225 226 227 228 229 230 231 232 233 0
33 -219 205 206 207 208 209 210 211 212 213 214 215 216 217 218 220 221 222 223 224 225 226 227 228 229 230 231 232 233 0
33 -220 205 206 207 208 209 210 211 212 213 214 215 216 217 218 219 221 222 223 224 225 226 227 228 229 230 231 232 233 0
33 -221 205 206 207 208 209 210 211 212 213 214 215 216 217 218 219 220 222 223 224 225 226 227 228 229 230 231 232 233 0
33 -222 205 206 207 208 209 210 211 212 213 214 215 216 217 218 219 220 221 223 224 225 226 227 228 229 230 231 232 233 0
33 -223 205 206 207 208 209 210 211 212 213 214 215 216 217 218 219 220 221 222 224 225 226 227 228 229 230 231 232 233 0
33 -224 205 206 207 208 209 210 211 212 213 214 215 216 217 218 219 220 221 222 223 225 226 227 228 229 230 231 232 233 0
33 -225 205 206 207 208 209 210 211 212 213 214 215 216 217 218 219 220 221 222 223 224 226 227 228 229 230 231 232 233 0
33 -226 205 206 207 208 209 210 211 212 213 214 215 216 217 218 219 220 221 222 223 224 225 227 228 229 230 231 232 233 0
33 -227 205 206 207 208 209 210 211 212 213 214 215 216 217 218 219 220 221 222 223 224 225 226 228 229 230 231 232 233 0
33 -228 205 206 207 208 209 210 211 212 213 214 215 216 217 218 219 220 221 222 223 224 225 226 227 229 230 231 232 233 0
33 -229 205 206 207 208 209 210 211 212 213 214 215 216 217 218 219 220 221 222 223 224 225 226 227 228 230 231 232 233 0
33 -230 205 206 207 208 209 210 211 212 213 214 215 216 217 218 219 220 221 222 223 224 225 226 227 228 229 231 232 233 0
33 -231 205 206 207 208 209 210 211 212 213 214 215 216 217 218 219 220 221 222 223 224 225 226 227 228 229 230 232 233 0
33 -232 205 206 207 208 209 210 211 212 213 214 215 216 217 218 219 220 221 222 223 224 225 226 227 228 229 230 231 233 0
33 -233 205 206 207 208 209 210 211 212 213 214 215 216 217 218 219 220 221 222 223 224 225 226 227 228 229 230 231 232 0
-234 1 0
-234 7 0
-1 -7 234 0
-235 2 0
-235 6 0
-2 -6 235 0
-236 3 0
-236 5 0
-3 -5 236 0
-237 8 0
-237 59 0
-8 -59 237 0
-238 9 0
-238 58 0
-9 -58 238 0
-239 10 0
-239 57 0
-10 -57 239 0
-240 11 0
-240 56 0
-11 -56 240 0
-241 12 0
-241 55 0
-12 -55 241 0
-242 13 0
-242 54 0
-13 -54 242 0
-243 14 0
-243 53 0
-14 -53 243 0
-244 15 0
-244 52 0
-15 -52 244 0
-245 16 0
-245 51 0
-16 -51 245 0
-246 17 0
-246 50 0
-17 -50 246 0
-247 18 0
-247 49 0
-18 -49 247 0
-248 19 0
-248 48 0
-19 -48 248 0
-249 20 0
-249 47 0
-20 -47 249 0
-250 21 0
-250 46 0
-21 -46 250 0
-251 22 0
-251 45 0
-22 -45 251 0
-252 23 0
-252 44 0
-23 -44 252 0
-253 24 0
-253 43 0
-24 -43 253 0
-254 25 0
-254 42 0
-25 -42 254 0
-255 26 0
-255 41 0
-26 -41 255 0
-256 27 0
-256 40 0
-27 -40 256 0
-257 28 0
-257 39 0
-28 -39 257 0
-258 29 0
-258 38 0
-29 -38 258 0
-259 30 0
-259 37 0
-30 -37 259 0
-260 31 0
-260 36 0
-31 -36 260 0
-261 32 0
-261 35 0
-32 -35 261 0
-262 33 0
-262 34 0
-33 -34 262 0
-4 234 235 236 237 238 239 240 241 242 243 244 245 246 247 248 249 250 251 252 253 254 255 256 257 258 259 260 261 262 0
4 -234 235 236 237 238 239 240 241 242 243 244 245 246 247 248 249 250 251 252 253 254 255 256 257 258 259 260 261 262 0
4 -235 234 236 237 238 239 240 241 242 243 244 245 246 247 248 249 250 251 252 253 254 255 256 257 258 259 260 261 262 0
4 -236 234 235 237 238 239 240 241 242 243 244 245 246 247 248 249 250 251 252 253 254 255 256 257 258 259 260 261 262 0
4 -237 234 235 236 238 239 240 241 242 243 244 245 246 247 248 249 250 251 252 253 254 255 256 257 258 259 260 261 262 0
4 -238 234 235 236 237 239 240 241 242 243 244 245 246 247 248 249 250 251 252 253 254 255 256 257 258 259 260 261 262 0
4 -239 234 235 236 237 238 240 241 242 243 244 245 246 247 248 249 250 251 252 253 254 255 256 257 258 259 260 261 262 0
4 -240 234 235 236 237 238 239 241 242 243 244 245 246 247 248 249 250 251 252 253 254 255 256 257 258 259 260 261 262 0
4 -241 234 235 236 237 238 239 240 242 243 244 245 246 247 248 249 250 251 252 253 254 255 256 257 258 259 260 261 262 0
4 -242 234 235 236 237 238 239 240 241 243 244 245 246 247 248 249 250 251 252 253 254 255 256 257 258 259 260 261 262 0
4 -243 234 235 236 237 238 239 240 241 242 244 245 246 247 248 249 250 251 252 253 254 255 256 257 258 259 260 261 262 0
4 -244 234 235 236 237 238 239 240 241 242 243 245 246 247 248 249 250 251 252 253 254 255 256 257 258 259 260 261 262 0
4 -245 234 235 236 237 238 239 240 241 242 243 244 246 247 248 249 250 251 252 253 254 255 256 257 258 259 260 261 262 0
4 -246 234 235 236 237 238 239 240 241 242 243 244 245 247 248 249 250 251 252 253 254 255 256 257 258 259 260 261 262 0
4 -247 234 235 236 237 238 239 240 241 242 243 244 245 246 248 249 250 251 252 253 254 255 256 257 258 259 260 261 262 0
4 -248 234 235 236 237 238 239 240 241 242 243 244 245 246 247 249 250 251 252 253 254 255 256 257 258 259 260 261 262 0
4 -249 234 235 236 237 238 239 240 241 242 243 244 245 246 247 248 250 251 252 253 254 255 256 257 258 259 260 261 262 0
4 -250 234 235 236 237 238 239 240 241 242 243 244 245 246 247 248 249 251 252 253 254 255 256 257 258 259 260 261 262 0
4 -251 234 235 236 237 238 239 240 241 242 243 244 245 246 247 248 249 250 252 253 254 255 256 257 258 259 260 261 262 0
4 -252 234 235 236 237 238 239 240 241 242 243 244 245 246 247 248 249 250 251 253 254 255 256 257 258 259 260 261 262 0
4 -253 234 235 236 237 238 239 240 241 242 243 244 245 246 247 248 249 250 251 252 254 255 256 257 258 259 260 261 262 0
4 -254 234 235 236 237 238 239 240 241 242 243 244 245 246 247 248 249 250 251 252 253 255 256 257 258 259 260 261 262 0
4 -255 234 235 236 237 238 239 240 241 242 243 244 245 246 247 248 249 250 251 252 253 254 256 257 258 259 260 261 262 0
4 -256 234 235 236 237 238 239 240 241 242 243 244 245 246 247 248 249 250 251 252 253 254 255 257 258 259 260 261 262 0
4 -257 234 235 236 237 238 239 240 241 242 243 244 245 246 247 248 249 250 251 252 253 254 255 256 258 259 260 261 262 0
4 -258 234 235 236 237 238 239 240 241 242 243 244 245 246 247 248 249 250 251 252 253 254 255 256 257 259 260 261 262 0
4 -259 234 235 236 237 238 239 240 241 242 243 244 245 246 247 248 249 250 251 252 253 254 255 256 257 258 260 261 262 0
4 -260 234 235 236 237 238 239 240 241 242 243 244 245 246 247 248 249 250 251 252 253 254 255 256 257 258 259 261 262 0
4 -261 234 235 236 237 238 239 240 241 242 243 244 245 246 247 248 249 250 251 252 253 254 255 256 257 258 259 260 262 0
4 -262 234 235 236 237 238 239 240 241 242 243 244 245 246 247 248 249 250 251 252 253 254 255 256 257 258 259 260 261 0
-263 1 0
-263 8 0
-1 -8 263 0
-264 2 0
-264 7 0
-2 -7 264 0
-265 3 0
-265 6 0
-3 -6 265 0
-266 4 0
-266 5 0
-4 -5 266 0
-267 9 0
-267 59 0
-9 -59 267 0
-268 10 0
-268 58 0
-10 -58 268 0
-269 11 0
-269 57 0
-11 -57 269 0
-270 12 0
-270 56 0
-12 -56 270 0
-271 13 0
-271 55 0
-13 -55 271 0
-272 14 0
-272 54 0
-14 -54 272 0
-273 15 0
-273 53 0
-15 -53 273 0
-274 16 0
-274 52 0
-16 -52 274 0
-275 17 0
-275 51 0
-17 -51 275 0
-276 18 0
-276 50 0
-18 -50 276 0
-277 19 0
-277 49 0
-19 -49 277 0
-278 20 0
-278 48 0
-20 -48 278 0
-279 21 0
-279 47 0
-21 -47 279 0
-280 22 0
-280 46 0
-22 -46 280 0
-281 23 0
-281 45 0
-23 -45 281 0
-282 24 0
-282 44 0
-24 -44 282 0
-283 25 0
-283 43 0
-25 -43 283 0
-284 26 0
-284 42 0
-26 -42 284 0
-285 27 0
-285 41 0
-27 -41 285 0
-286 28 0
-286 40 0
-28 -40 286 0
-287 29 0
-287 39 0
-29 -39 287 0
-288 30 0
-288 38 0
-30 -38 288 0
-289 31 0
-289 37 0
-31 -37 289 0
-290 32 0
-290 36 0
-32 -36 290 0
-291 33 0
-291 35 0
-33 -35 291 0
-34 263 264 265 266 267 268 269 270 271 272 273 274 275 276 277 278 279 280 281 282 283 284 285 286 287 288 289 290 291 0
34 -263 264 265 266 267 268 269 270 271 272 273 274 275 276 277 278 279 280 281 282 283 284 285 286 287 288 289 290 291 0
34 -264 263 265 266 267 268 269 270 271 272 273 274 275 276 277 278 279 280 281 282 283 284 285 286 287 288 289 290 291 0
34 -265 263 264 266 267 268 269 270 271 272 273 274 275 276 277 278 279 280 281 282 283 284 285 286 287 288 289 290 291 0
34 -266 263 264 265 267 268 269 270 271 272 273 274 275 276 277 278 279 280 281 282 283 284 285 286 287 288 289 290 291 0
34 -267 263 264 265 266 268 269 270 271 272 273 274 275 276 277 278 279 280 281 282 283 284 285 286 287 288 289 290 291 0
34 -268 263 264 265 266 267 269 270 271 272 273 274 275 276 277 278 279 280 281 282 283 284 285 286 287 288 289 290 291 0
34 -269 263 264 265 266 267 268 270 271 272 273 274 275 276 277 278 279 280 281 282 283 284 285 286 287 288 289 290 291 0
34 -270 263 264 265 266 267 268 269 271 272 273 274 275 276 277 278 279 280 281 282 283 284 285 286 287 288 289 290 291 0
34 -271 263 264 265 266 267 268 269 270 272 273 274 275 276 277 278 279 280 281 282 283 284 285 286 287 288 289 290 291 0
34 -272 263 264 265 266 267 268 269 270 271 273 274 275 276 277 278 279 280 281 282 283 284 285 286 287 288 289 290 291 0
34 -273 263 264 265 266 267 268 269 270 271 272 274 275 276 277 278 279 280 281 282 283 284 285 286 287 288 289 290 291 0
34 -274 263 264 265 266 267 268 269 270 271 272 273 275 276 277 278 279 280 281 282 283 284 285 286 287 288 289 290 291 0
34 -275 263 264 265 266 267 268 269 270 271 272 273 274 276 277 278 279 280 281 282 283 284 285 286 287 288 289 290 291 0
34 -276 263 264 265 266 267 268 269 270 271 272 273 274 275 277 278 279 280 281 282 283 284 285 286 287 288 289 290 291 0
34 -277 263 264 265 266 267 268 269 270 271 272 273 274 275 276 278 279 280 281 282 283 284 285 286 287 288 289 290 291 0
34 -278 263 264 265 266 267 268 269 270 271 272 273 274 275 276 277 279 280 281 282 283 284 285 286 287 288 289 290 291 0
34 -279 263 264 265 266 267 268 269 270 271 272 273 274 275 276 277 278 280 281 282 283 284 285 286 287 288 289 290 291 0
34 -280 263 264 265 266 267 268 269 270 271 272 273 274 275 276 277 278 279 281 282 283 284 285 286 287 288 289 290 291 0
34 -281 263 264 265 266 267 268 269 270 271 272 273 274 275 276 277 278 279 280 282 283 284 285 286 287 288 289 290 291 0
34 -282 263 264 265 266 267 268 269 270 271 272 273 274 275 276 277 278 279 280 281 283 284 285 286 287 288 289 290 291 0
34 -283 263 264 265 266 267 268 269 270 271 272 273 274 275 276 277 278 279 280 281 282 284 285 286 287 288 289 290 291 0
34 -284 263 264 265 266 267 268 269 270 271 272 273 274 275 276 277 278 279 280 281 282 283 285 286 287 288 289 290 291 0
34 -285 263 264 265 266 267 268 269 270 271 272 273 274 275 276 277 278 279 280 281 282 283 284 286 287 288 289 290 291 0
34 -286 263 264 265 266 267 268 269 270 271 272 273 274 275 276 277 278 279 280 281 282 283 284 285 287 288 289 290 291 0
34 -287 263 264 265 266 267 268 269 270 271 272 273 274 275 276 277 278 279 280 281 282 283 284 285 286 288 289 290 291 0
34 -288 263 264 265 266 267 268 269 270 271 272 273 274 275 276 277 278 279 280 281 282 283 284 285 286 287 289 290 291 0
34 -289 263 264 265 266 267 268 269 270 271 272 273 274 275 276 277 278 279 280 281 282 283 284 285 286 287 288 290 291 0
34 -290 263 264 265 266 267 268 269 270 271 272 273 274 275 276 277 278 279 280 281 282 283 284 285 286 287 288 289 291 0
34 -291 263 264 265 266 267 268 269 270 271 272 273 274 275 276 277 278 279 280 281 282 283 284 285 286 287 288 289 290 0
-292 1 0
-292 9 0
-1 -9 292 0
-293 2 0
-293 8 0
-2 -8 293 0
-294 3 0
-294 7 0
-3 -7 294 0
-295 4 0
-295 6 0
-4 -6 295 0
-296 10 0
-296 59 0
-10 -59 296 0
-297 11 0
-297 58 0
-11 -58 297 0
-298 12 0
-298 57 0
-12 -57 298 0
-299 13 0
-299 56 0
-13 -56 299 0
-300 14 0
-300 55 0
-14 -55 300 0
-301 15 0
-301 54 0
-15 -54 301 0
-302 16 0
-302 53 0
-16 -53 302 0
-303 17 0
-303 52 0
-17 -52 303 0
-304 18 0
-304 51 0
-18 -51 304 0
-305 19 0
-305 50 0
-19 -50 305 0
-306 20 0
-306 49 0
-20 -49 306 0
-307 21 0
-307 48 0
-21 -48 307 0
-308 22 0
-308 47 0
-22 -47 308 0
-309 23 0
-309 46 0
-23 -46 309 0
-310 24 0
-310 45 0
-24 -45 310 0
-311 25 0
-311 44 0
-25 -44 311 0
-312 26 0
-312 43 0
-26 -43 312 0
-313 27 0
-313 42 0
-27 -42 313 0
-314 28 0
-314 41 0
-28 -41 314 0
-315 29 0
-315 40 0
-29 -40 315 0
-316 30 0
-316 39 0
-30 -39 316 0
-317 31 0
-317 38 0
-31 -38 317 0
-318 32 0
-318 37 0
-32 -37 318 0
-319 33 0
-319 36 0
-33 -36 319 0
-320 34 0
-320 35 0
-34 -35 320 0
-5 292 293 294 295 296 297 298 299 300 301 302 303 304 305 306 307 308 309 310 311 312 313 314 315 316 317 318 319 320 0
5 -292 293 294 295 296 297 298 299 300 301 302 303 304 305 306 307 308 309 310 311 312 313 314 315 316 317 318 319 320 0
5 -293 292 294 295 296 297 298 299 300 301 302 303 304 305 306 307 308 309 310 311 312 313 314 315 316 317 318 319 320 0
5 -294 292 293 295 296 297 298 299 300 301 302 303 304 305 306 307 308 309 310 311 312 313 314 315 316 317 318 319 320 0
5 -295 292 293 294 296 297 298 299 300 301 302 303 304 305 306 307 308 309 310 311 312 313 314 315 316 317 318 319 320 0
5 -296 292 293 294 295 297 298 299 300 301 302 303 304 305 306 307 308 309 310 311 312 313 314 315 316 317 318 319 320 0
5 -297 292 293 294 295 296 298 299 300 301 302 303 304 305 306 307 308 309 310 311 312 313 314 315 316 317 318 319 320 0
5 -298 292 293 294 295 296 297 299 300 301 302 303 304 305 306 307 308 309 310 311 312 313 314 315 316 317 318 319 320 0
5 -299 292 293 294 295 296 297 298 300 301 302 303 304 305 306 307 308 309 310 311 312 313 314 315 316 317 318 319 320 0
5 -300 292 293 294 295 296 297 298 299 301 302 303 304 305 306 307 308 309 310 311 312 313 314 315 316 317 318 319 320 0
5 -301 292 293 294 295 296 297 298 299 300 302 303 304 305 306 307 308 309 310 311 312 313 314 315 316 317 318 319 320 0
5 -302 292 293 294 295 296 297 298 299 300 301 303 304 305 306 307 308 309 310 311 312 313 314 315 316 317 318 319 320 0
5 -303 292 293 294 295 296 297 298 299 300 301 302 304 305 306 307 308 309 310 311 312 313 314 315 316 317 318 319 320 0
5 -304 292 293 294 295 296 297 298 299 300 301 302 303 305 306 307 308 309 310 311 312 313 314 315 316 317 318 319 320 0
5 -305 292 293 294 295 296 297 298 299 300 301 302 303 304 306 307 308 309 310 311 312 313 314 315 316 317 318 319 320 0
5 -306 292 293 294 295 296 297 298 299 300 301 302 303 304 305 307 308 309 310 311 312 313 314 315 316 317 318 319 320 0
5 -307 292 293 294 295 296 297 298 299 300 301 302 303 304 305 306 308 309 310 311 312 313 314 315 316 317 318 319 320 0
5 -308 292 293 294 295 296 297 298 299 300 301 302 303 304 305 306 307 309 310 311 312 313 314 315 316 317 318 319 320 0
5 -309 292 293 294 295 296 297 298 299 300 301 302 303 304 305 306 307 308 310 311 312 313 314 315 316 317 318 319 320 0
5 -310 292 293 294 295 296 297 298 299 300 301 302 303 304 305 306 307 308 309 311 312 313 314 315 316 317 318 319 320 0
5 -311 292 293 294 295 296 297 298 299 300 301 302 303 304 305 306 307 308 309 310 312 313 314 315 316 317 318 319 320 0
5 -312 292 293 294 295 296 297 298 299 300 301 302 303 304 305 306 307 308 309 310 311 313 314 315 316 317 318 319 320 0
5 -313 292 293 294 295 296 297 298 299 300 301 302 303 304 305 306 307 308 309 310 311 312 314 315 316 317 318 319 320 0
5 -314 292 293 294 295 296 297 298 299 300 301 302 303 304 305 306 307 308 309 310 311 312 313 315 316 317 318 319 320 0
5 -315 292 293 294 295 296 297 298 299 300 301 302 303 304 305 306 307 308 309 310 311 312 313 314 316 317 318 319 320 0
5 -316 292 293 294 295 296 297 298 299 300 301 302 303 304 305 306 307 308 309 310 311 312 313 314 315 317 318 319 320 0
5 -317 292 293 294 295 296 297 298 299 300 301 302 303 304 305 306 307 308 309 310 311 312 313 314 315 316 318 319 320 0
5 -318 292 293 294 295 296 297 298 299 300 301 302 303 304 305 306 307 308 309 310 311 312 313 314 315 316 317 319 320 0
5 -319 292 293 294 295 296 297 298 299 300 301 302 303 304 305 306 307 308 309 310 311 312 313 314 315 316 317 318 320 0
5 -320 292 293 294 295 296 297 298 299 300 301 302 303 304 305 306 307 308 309 310 311 312 313 314 315 316 317 318 319 0
-321 1 0
-321 10 0
-1 -10 321 0
-322 2 0
-322 9 0
-2 -9 322 0
-323 3 0
-323 8 0
-3 -8 323 0
-324 4 0
-324 7 0
-4 -7 324 0
-325 5 0
-325 6 0
-5 -6 325 0
-326 11 0
-326 59 0
-11 -59 326 0
-327 12 0
-327 58 0
-12 -58 327 0
-328 13 0
-328 57 0
-13 -57 328 0
-329 14 0
-329 56 0
-14 -56 329 0
-330 15 0
-330 55 0
-15 -55 330 0
-331 16 0
-331 54 0
-16 -54 331 0
-332 17 0
-332 53 0
-17 -53 332 0
-333 18 0
-333 52 0
-18 -52 333 0
-334 19 0
-334 51 0
-19 -51 334 0
-335 20 0
-335 50 0
-20 -50 335 0
-336 21 0
-336 49 0
-21 -49 336 0
-337 22 0
-337 48 0
-22 -48 337 0
-338 23 0
-338 47 0
-23 -47 338 0
-339 24 0
-339 46 0
-24 -46 339 0
-340 25 0
-340 45 0
-25 -45 340 0
-341 26 0
-341 44 0
-26 -44 341 0
-342 27 0
-342 43 0
-27 -43 342 0
-343 28 0
-343 42 0
-28 -42 343 0
-344 29 0
-344 41 0
-29 -41 344 0
-345 30 0
-345 40 0
-30 -40 345 0
-346 31 0
-346 39 0
-31 -39 346 0
-347 32 0
-347 38 0
-32 -38 347 0
-348 33 0
-348 37 0
-33 -37 348 0
-349 34 0
-349 36 0
-34 -36 349 0
-35 321 322 323 324 325 326 327 328 329 330 331 332 333 334 335 336 337 338 339 340 341 342 343 344 345 346 347 348 349 0
35 -321 322 323 324 325 326 327 328 329 330 331 332 333 334 335 336 337 338 339 340 341 342 343 344 345 346 347 348 349 0
35 -322 321 323 324 325 326 327 328 329 330 331 332 333 334 335 336 337 338 339 340 341 342 343 344 345 346 347 348 349 0
35 -323 321 322 324 325 326 327 328 329 330 331 332 333 334 335 336 337 338 339 340 341 342 343 344 345 346 347 348 349 0
35 -324 321 322 323 325 326 327 328 329 330 331 332 333 334 335 336 337 338 339 340 341 342 343 344 345 346 347 348 349 0
35 -325 321 322 323 324 326 327 328 329 330 331 332 333 334 335 336 337 338 339 340 341 342 343 344 345 346 347 348 349 0
35 -326 321 322 323 324 325 327 328 329 330 331 332 333 334 335 336 337 338 339 340 341 342 343 344 345 346 347 348 349 0
35 -327 321 322 323 324 325 326 328 329 330 331 332 333 334 335 336 337 338 339 340 341 342 343 344 345 346 347 348 349 0
35 -328 321 322 323 324 325 326 327 329 330 331 332 333 334 335 336 337 338 339 340 341 342 343 344 345 346 347 348 349 0
35 -329 321 322 323 324 325 326 327 328 330 331 332 333 334 335 336 337 338 339 340 341 342 343 344 345 346 347 348 349 0
35 -330 321 322 323 324 325 326 327 328 329 331 332 333 334 335 336 337 338 339 340 341 342 343 344 345 346 347 348 349 0
35 -331 321 322 323 324 325 326 327 328 329 330 332 333 334 335 336 337 338 339 340 341 342 343 344 345 346 347 348 349 0
35 -332 321 322 323 324 325 326 327 328 329 330 331 333 334 335 336 337 338 339 340 341 342 343 344 345 346 347 348 349 0
35 -333 321 322 323 324 325 326 327 328 329 330 331 332 334 335 336 337 338 339 340 341 342 343 344 345 346 347 348 349 0
35 -334 321 322 323 324 325 326 327 328 329 330 331 332 333 335 336 337 338 339 340 341 342 343 344 345 346 347 348 349 0
35 -335 321 322 323 324 325 326 327 328 329 330 331 332 333 334 336 337 338 339 340 341 342 343 344 345 346 347 348 349 0
35 -336 321 322 323 324 325 326 327 328 329 330 331 332 333 334 335 337 338 339 340 341 342 343 344 345 346 347 348 349 0
35 -337 321 322 323 324 325 326 327 328 329 330 331 332 333 334 335 336 338 339 340 341 342 343 344 345 346 347 348 349 0
35 -338 321 322 323 324 325 326 327 328 329 330 331 332 333 334 335 336 337 339 340 341 342 343 344 345 346 347 348 349 0
35 -339 321 322 323 324 325 326 327 328 329 330 331 332 333 334 335 336 337 338 340 341 342 343 344 345 346 347 348 349 0
35 -340 321 322 323 324 325 326 327 328 329 330 331 332 333 334 335 336 337 338 339 341 342 343 344 345 346 347 348 349 0
35 -341 321 322 323 324 325 326 327 328 329 330 331 332 333 334 335 336 337 338 339 340 342 343 344 345 346 347 348 349 0
35 -342 321 322 323 324 325 326 327 328 329 330 331 332 333 334 335 336 337 338 339 340 341 343 344 345 346 347 348 349 0
35 -343 321 322 323 324 325 326 327 328 329 330 331 332 333 334 335 336 337 338 339 340 341 342 344 345 346 347 348 349 0
35 -344 321 322 323 324 325 326 327 328 329 330 331 332 333 334 335 336 337 338 339 340 341 342 343 345 346 347 348 349 0
35 -345 321 322 323 324 325 326 327 328 329 330 331 332 333 334 335 336 337 338 339 340 341 342 343 344 346 347 348 349 0
35 -346 321 322 323 324 325 326 327 328 329 330 331 332 333 334 335 336 337 338 339 340 341 342 343 344 345 347 348 349 0
35 -347 321 322 323 324 325 326 327 328 329 330 331 332 333 334 335 336 337 338 339 340 341 342 343 344 345 346 348 349 0
35 -348 321 322 323 324 325 326 327 328 329 330 331 332 333 334 335 336 337 338 339 340 341 342 343 344 345 346 347 349 0
35 -349 321 322 323 324 325 326 327 328 329 330 331 332 333 334 335 336 337 338 339 340 341 342 343 344 345 346 347 348 0
-350 1 0
-350 11 0
-1 -11 350 0
-351 2 0
-351 10 0
-2 -10 351 0
-352 3 0
-352 9 0
-3 -9 352 0
-353 4 0
-353 8 0
-4 -8 353 0
-354 5 0
-354 7 0
-5 -7 354 0
-355 12 0
-355 59 0
-12 -59 355 0
-356 13 0
-356 58 0
-13 -58 356 0
-357 14 0
-357 57 0
-14 -57 357 0
-358 15 0
-358 56 0
-15 -56 358 0
-359 16 0
-359 55 0
-16 -55 359 0
-360 17 0
-360 54 0
-17 -54 360 0
-361 18 0
-361 53 0
-18 -53 361 0
-362 19 0
-362 52 0
-19 -52 362 0
-363 20 0
-363 51 0
-20 -51 363 0
-364 21 0
-364 50 0
-21 -50 364 0
-365 22 0
-365 49 0
-22 -49 365 0
-366 23 0
-366 48 0
-23 -48 366 0
-367 24 0
-367 47 0
-24 -47 367 0
-368 25 0
-368 46 0
-25 -46 368 0
-369 26 0
-369 45 0
-26 -45 369 0
-370 27 0
-370 44 0
-27 -44 370 0
-371 28 0
-371 43 0
-28 -43 371 0
-372 29 0
-372 42 0
-29 -42 372 0
-373 30 0
-373 41 0
-30 -41 373 0
-374 31 0
-374 40 0
-31 -40 374 0
-375 32 0
-375 39 0
-32 -39 375 0
-376 33 0
-376 38 0
-33 -38 376 0
-377 34 0
-377 37 0
-34 -37 377 0
-378 35 0
-378 36 0
-35 -36 378 0
-6 350 351 352 353 354 355 356 357 358 359 360 361 362 363 364 365 366 367 368 369 370 371 372 373 374 375 376 377 378 0
6 -350 351 352 353 354 355 356 357 358 359 360 361 362 363 364 365 366 367 368 369 370 371 372 373 374 375 376 377 378 0
6 -351 350 352 353 354 355 356 357 358 359 360 361 362 363 364 365 366 367 368 369 370 371 372 373 374 375 376 377 378 0
6 -352 350 351 353 354 355 356 357 358 359 360 361 362 363 364 365 366 367 368 369 370 371 372 373 374 375 376 377 378 0
6 -353 350 351 352 354 355 356 357 358 359 360 361 362 363 364 365 366 367 368 369 370 371 372 373 374 375 376 377 378 0
6 -354 350 351 352 353 355 356 357 358 359 360 361 362 363 364 365 366 367 368 369 370 371 372 373 374 375 376 377 378 0
6 -355 350 351 352 353 354 356 357 358 359 360 361 362 363 364 365 366 367 368 369 370 371 372 373 374 375 376 377 378 0
6 -356 350 351 352 353 354 355 357 358 359 360 361 362 363 364 365 366 367 368 369 370 371 372 373 374 375 376 377 378 0
6 -357 350 351 352 353 354 355 356 358 359 360 361 362 363 364 365 366 367 368 369 370 371 372 373 374 375 376 377 378 0
6 -358 350 351 352 353 354 355 356 357 359 360 361 362 363 364 365 366 367 368 369 370 371 372 373 374 375 376 377 378 0
6 -359 350 351 352 353 354 355 356 357 358 360 361 362 363 364 365 366 367 368 369 370 371 372 373 374 375 376 377 378 0
6 -360 350 351 352 353 354 355 356 357 358 359 361 362 363 364 365 366 367 368 369 370 371 372 373 374 375 376 377 378 0
6 -361 350 351 352 353 354 355 356 357 358 359 360 362 363 364 365 366 367 368 369 370 371 372 373 374 375 376 377 378 0
6 -362 350 351 352 353 354 355 356 357 358 359 360 361 363 364 365 366 367 368 369 370 371 372 373 374 375 376 377 378 0
6 -363 350 351 352 353 354 355 356 357 358 359 360 361 362 364 365 366 367 368 369 370 371 372 373 374 375 376 377 378 0
6 -364 350 351 352 353 354 355 356 357 358 359 360 361 362 363 365 366 367 368 369 370 371 372 373 374 375 376 377 378 0
6 -365 350 351 352 353 354 355 356 357 358 359 360 361 362 363 364 366 367 368 369 370 371 372 373 374 375 376 377 378 0
6 -366 350 351 352 353 354 355 356 357 358 359 360 361 362 363 364 365 367 368 369 370 371 372 373 374 375 376 377 378 0
6 -367 350 351 352 353 354 355 356 357 358 359 360 361 362 363 364 365 366 368 369 370 371 372 373 374 375 376 377 378 0
6 -368 350 351 352 353 354 355 356 357 358 359 360 361 362 363 364 365 366 367 369 370 371 372 373 374 375 376 377 378 0
6 -369 350 351 352 353 354 355 356 357 358 359 360 361 362 363 364 365 366 367 368 370 371 372 373 374 375 376 377 378 0
6 -370 350 351 352 353 354 355 356 357 358 359 360 361 362 363 364 365 366 367 368 369 371 372 373 374 375 376 377 378 0
6 -371 350 351 352 353 354 355 356 357 358 359 360 361 362 363 364 365 366 367 368 369 370 372 373 374 375 376 377 378 0
6 -372 350 351 352 353 354 355 356 357 358 359 360 361 362 363 364 365 366 367 368 369 370 371 373 374 375 376 377 378 0
6 -373 350 351 352 353 354 355 356 357 358 359 360 361 362 363 364 365 366 367 368 369 370 371 372 374 375 376 377 378 0
6 -374 350 351 352 353 354 355 356 357 358 359 360 361 362 363 364 365 366 367 368 369 370 371 372 373 375 376 377 378 0
6 -375 350 351 352 353 354 355 356 357 358 359 360 361 362 363 364 365 366 367 368 369 370 371 372 373 374 376 377 378 0
6 -376 350 351 352 353 354 355 356 357 358 359 360 361 362 363 364 365 366 367 368 369 370 371 372 373 374 375 377 378 0
6 -377 350 351 352 353 354 355 356 357 358 359 360 361 362 363 364 365 366 367 368 369 370 371 372 373 374 375 376 378 0
6 -378 350 351 352 353 354 355 356 357 358 359 360 361 362 363 364 365 366 367 368 369 370 371 372 373 374 375 376 377 0
-379 1 0
-379 12 0
-1 -12 379 0
-380 2 0
-380 11 0
-2 -11 380 0
-381 3 0
-381 10 0
-3 -10 381 0
-382 4 0
-382 9 0
-4 -9 382 0
-383 5 0
-383 8 0
-5 -8 383 0
-384 6 0
-384 7 0
-6 -7 384 0
-385 13 0
-385 59 0
-13 -59 385 0
-386 14 0
-386 58 0
-14 -58 386 0
-387 15 0
-387 57 0
-15 -57 387 0
-388 16 0
-388 56 0
-16 -56 388 0
-389 17 0
-389 55 0
-17 -55 389 0
-390 18 0
-390 54 0
-18 -54 390 0
-391 19 0
-391 53 0
-19 -53 391 0
-392 20 0
-392 52 0
-20 -52 392 0
-393 21 0
-393 51 0
-21 -51 393 0
-394 22 0
-394 50 0
-22 -50 394 0
-395 23 0
-395 49 0
-23 -49 395 0
-396 24 0
-396 48 0
-24 -48 396 0
-397 25 0
-397 47 0
-25 -47 397 0
-398 26 0
-398 46 0
-26 -46 398 0
-399 27 0
-399 45 0
-27 -45 399 0
-400 28 0
-400 44 0
-28 -44 400 0
-401 29 0
-401 43 0
-29 -43 401 0
-402 30 0
-402 42 0
-30 -42 402 0
-403 31 0
-403 41 0
-31 -41 403 0
-404 32 0
-404 40 0
-32 -40 404 0
-405 33 0
-405 39 0
-33 -39 405 0
-406 34 0
-406 38 0
-34 -38 406 0
-407 35 0
-407 37 0
-35 -37 407 0
-36 379 380 381 382 383 384 385 386 387 388 389 390 391 392 393 394 395 396 397 398 399 400 401 402 403 404 405 406 407 0
36 -379 380 381 382 383 384 385 386 387 388 389 390 391 392 393 394 395 396 397 398 399 400 401 402 403 404 405 406 407 0
36 -380 379 381 382 383 384 385 386 387 388 389 390 391 392 393 394 395 396 397 398 399 400 401 402 403 404 405 406 407 0
36 -381 379 380 382 383 384 385 386 387 388 389 390 391 392 393 394 395 396 397 398 399 400 401 402 403 404 405 406 407 0
36 -382 379 380 381 383 384 385 386 387 388 389 390 391 392 393 394 395 396 397 398 399 400 401 402 403 404 405 406 407 0
36 -383 379 380 381 382 384 385 386 387 388 389 390 391 392 393 394 395 396 397 398 399 400 401 402 403 404 405 406 407 0
36 -384 379 380 381 382 383 385 386 387 388 389 390 391 392 393 394 395 396 397 398 399 400 401 402 403 404 405 406 407 0
36 -385 379 380 381 382 383 384 386 387 388 389 390 391 392 393 394 395 396 397 398 399 400 401 402 403 404 405 406 407 0
36 -386 379 380 381 382 383 384 385 387 388 389 390 391 392 393 394 395 396 397 398 399 400 401 402 403 404 405 406 407 0
36 -387 379 380 381 382 383 384 385 386 388 389 390 391 392 393 394 395 396 397 398 399 400 401 402 403 404 405 406 407 0
36 -388 379 380 381 382 383 384 385 386 387 389 390 391 392 393 394 395 396 397 398 399 400 401 402 403 404 405 406 407 0
36 -389 379 380 381 382 383 384 385 386 387 388 390 391 392 393 394 395 396 397 398 399 400 401 402 403 404 405 406 407 0
36 -390 379 380 381 382 383 384 385 386 387 388 389 391 392 393 394 395 396 397 398 399 400 401 402 403 404 405 406 407 0
36 -391 379 380 381 382 383 384 385 386 387 388 389 390 392 393 394 395 396 397 398 399 400 401 402 403 404 405 406 407 0
36 -392 379 380 381 382 383 384 385 386 387 388 389 390 391 393 394 395 396 397 398 399 400 401 402 403 404 405 406 407 0
36 -393 379 380 381 382 383 384 385 386 387 388 389 390 391 392 394 395 396 397 398 399 400 401 402 403 404 405 406 407 0
36 -394 379 380 381 382 383 384 385 386 387 388 389 390 391 392 393 395 396 397 398 399 400 401 402 403 404 405 406 407 0
36 -395 379 380 381 382 383 384 385 386 387 388 389 390 391 392 393 394 396 397 398 399 400 401 402 403 404 405 406 407 0
36 -396 379 380 381 382 383 384 385 386 387 388 389 390 391 392 393 394 395 397 398 399 400 401 402 403 404 405 406 407 0
36 -397 379 380 381 382 383 384 385 386 387 388 389 390 391 392 393 394 395 396 398 399 400 401 402 403 404 405 406 407 0
36 -398 379 380 381 382 383 384 385 386 387 388 389 390 391 392 393 394 395 396 397 399 400 401 402 403 404 405 406 407 0
36 -399 379 380 381 382 383 384 385 386 387 388 389 390 391 392 393 394 395 396 397 398 400 401 402 403 404 405 406 407 0
36 -400 379 380 381 382 383 384 385 386 387 388 389 390 391 392 393 394 395 396 397 398 399 401 402 403 404 405 406 407 0
36 -401 379 380 381 382 383 384 385 386 387 388 389 390 391 392 393 394 395 396 397 398 399 400 402 403 404 405 406 407 0
36 -402 379 380 381 382 383 384 385 386 387 388 389 390 391 392 393 394 395 396 397 398 399 400 401 403 404 405 406 407 0
36 -403 379 380 381 382 383 384 385 386 387 388 389 390 391 392 393 394 395 396 397 398 399 400 401 402 404 405 406 407 0
36 -404 379 380 381 382 383 384 385 386 387 388 389 390 391 392 393 394 395 396 397 398 399 400 401 402 403 405 406 407 0
36 -405 379 380 381 382 383 384 385 386 387 388 389 390 391 392 393 394 395 396 397 398 399 400 401 402 403 404 406 407 0
36 -406 379 380 381 382 383 384 385 386 387 388 389 390 391 392 393 394 395 396 397 398 399 400 401 402 403 404 405 407 0
36 -407 379 380 381 382 383 384 385 386 387 388 389 390 391 392 393 394 395 396 397 398 399 400 401 402 403 404 405 406 0
-408 1 0
-408 13 0
-1 -13 408 0
-409 2 0
-409 12 0
-2 -12 409 0
-410 3 0
-410 11 0
-3 -11 410 0
-411 4 0
-411 10 0
-4 -10 411 0
-412 5 0
-412 9 0
-5 -9 412 0
-413 6 0
-413 8 0
-6 -8 413 0
-414 14 0
-414 59 0
-14 -59 414 0
-415 15 0
-415 58 0
-15 -58 415 0
-416 16 0
-416 57 0
-16 -57 416 0
-417 17 0
-417 56 0
-17 -56 417 0
-418 18 0
-418 55 0
-18 -55 418 0
-419 19 0
-419 54 0
-19 -54 419 0
-420 20 0
-420 53 0
-20 -53 420 0
-421 21 0
-421 52 0
-21 -52 421 0
-422 22 0
-422 51 0
-22 -51 422 0
-423 23 0
-423 50 0
-23 -50 423 0
-424 24 0
-424 49 0
-24 -49 424 0
-425 25 0
-425 48 0
-25 -48 425 0
-426 26 0
-426 47 0
-26 -47 426 0
-427 27 0
-427 46 0
-27 -46 427 0
-428 28 0
-428 45 0
-28 -45 428 0
-429 29 0
-429 44 0
-29 -44 429 0
-430 30 0
-430 43 0
-30 -43 430 0
-431 31 0
-431 42 0
-31 -42 431 0
-432 32 0
-432 41 0
-32 -41 432 0
-433 33 0
-433 40 0
-33 -40 433 0
-434 34 0
-434 39 0
-34 -39 434 0
-435 35 0
-435 38 0
-35 -38 435 0
-436 36 0
-436 37 0
-36 -37 436 0
-7 408 409 410 411 412 413 414 415 416 417 418 419 420 421 422 423 424 425 426 427 428 429 430 431 432 433 434 435 436 0
7 -408 409 410 411 412 413 414 415 416 417 418 419 420 421 422 423 424 425 426 427 428 429 430 431 432 433 434 435 436 0
7 -409 408 410 411 412 413 414 415 416 417 418 419 420 421 422 423 424 425 426 427 428 429 430 431 432 433 434 435 436 0
7 -410 408 409 411 412 413 414 415 416 417 418 419 420 421 422 423 424 425 426 427 428 429 430 431 432 433 434 435 436 0
7 -411 408 409 410 412 413 414 415 416 417 418 419 420 421 422 423 424 425 426 427 428 429 430 431 432 433 434 435 436 0
7 -412 408 409 410 411 413 414 415 416 417 418 419 420 421 422 423 424 425 426 427 428 429 430 431 432 433 434 435 436 0
7 -413 408 409 410 411 412 414 415 416 417 418 419 420 421 422 423 424 425 426 427 428 429 430 431 432 433 434 435 436 0
7 -414 408 409 410 411 412 413 415 416 417 418 419 420 421 422 423 424 425 426 427 428 429 430 431 432 433 434 435 436 0
7 -415 408 409 410 411 412 413 414 416 417 418 419 420 421 422 423 424 425 426 427 428 429 430 431 432 433 434 435 436 0
7 -416 408 409 410 411 412 413 414 415 417 418 419 420 421 422 423 424 425 426 427 428 429 430 431 432 433 434 435 436 0
7 -417 408 409 410 411 412 413 414 415 416 418 419 420 421 422 423 424 425 426 427 428 429 430 431 432 433 434 435 436 0
7 -418 408 409 410 411 412 413 414 415 416 417 419 420 421 422 423 424 425 426 427 428 429 430 431 432 433 434 435 436 0
7 -419 408 409 410 411 412 413 414 415 416 417 418 420 421 422 423 424 425 426 427 428 429 430 431 432 433 434 435 436 0
7 -420 408 409 410 411 412 413 414 415 416 417 418 419 421 422 423 424 425 426 427 428 429 430 431 432 433 434 435 436 0
7 -421 408 409 410 411 412 413 414 415 416 417 418 419 420 422 423 424 425 426 427 428 429 430 431 432 433 434 435 436 0
7 -422 408 409 410 411 412 413 414 415 416 417 418 419 420 421 423 424 425 426 427 428 429 430 431 432 433 434 435 436 0
7 -423 408 409 410 411 412 413 414 415 416 417 418 419 420 421 422 424 425 426 427 428 429 430 431 432 433 434 435 436 0
7 -424 408 409 410 411 412 413 414 415 416 417 418 419 420 421 422 423 425 426 427 428 429 430 431 432 433 434 435 436 0
7 -425 408 409 410 411 412 413 414 415 416 417 418 419 420 421 422 423 424 426 427 428 429 430 431 432 433 434 435 436 0
7 -426 408 409 410 411 412 413 414 415 416 417 418 419 420 421 422 423 424 425 427 428 429 430 431 432 433 434 435 436 0
7 -427 408 409 410 411 412 413 414 415 416 417 418 419 420 421 422 423 424 425 426 428 429 430 431 432 433 434 435 436 0
7 -428 408 409 410 411 412 413 414 415 416 417 418 419 420 421 422 423 424 425 426 427 429 430 431 432 433 434 435 436 0
7 -429 408 409 410 411 412 413 414 415 416 417 418 419 420 421 422 423 424 425 426 427 428 430 431 432 433 434 435 436 0
7 -430 408 409 410 411 412 413 414 415 416 417 418 419 420 421 422 423 424 425 426 427 428 429 431 432 433 434 435 436 0
7 -431 408 409 410 411 412 413 414 415 416 417 418 419 420 421 422 423 424 425 426 427 428 429 430 432 433 434 435 436 0
7 -432 408 409 410 411 412 413 414 415 416 417 418 419 420 421 422 423 424 425 426 427 428 429 430 431 433 434 435 436 0
7 -433 408 409 410 411 412 413 414 415 416 417 418 419 420 421 422 423 424 425 426 427 428 429 430 431 432 434 435 436 0
7 -434 408 409 410 411 412 413 414 415 416 417 418 419 420 421 422 423 424 425 426 427 428 429 430 431 432 433 435 436 0
7 -435 408 409 410 411 412 413 414 415 416 417 418 419 420 421 422 423 424 425 426 427 428 429 430 431 432 433 434 436 0
7 -436 408 409 410 411 412 413 414 415 416 417 418 419 420 421 422 423 424 425 426 427 428 429 430 431 432 433 434 435 0
-437 1 0
-437 14 0
-1 -14 437 0
-438 2 0
-438 13 0
-2 -13 438 0
-439 3 0
-439 12 0
-3 -12 439 0
-440 4 0
-440 11 0
-4 -11 440 0
-441 5 0
-441 10 0
-5 -10 441 0
-442 6 0
-442 9 0
-6 -9 442 0
-443 7 0
-443 8 0
-7 -8 443 0
-444 15 0
-444 59 0
-15 -59 444 0
-445 16 0
-445 58 0
-16 -58 445 0
-446 17 0
-446 57 0
-17 -57 446 0
-447 18 0
-447 56 0
-18 -56 447 0
-448 19 0
-448 55 0
-19 -55 448 0
-449 20 0
-449 54 0
-20 -54 449 0
-450 21 0
-450 53 0
-21 -53 450 0
-451 22 0
-451 52 0
-22 -52 451 0
-452 23 0
-452 51 0
-23 -51 452 0
-453 24 0
-453 50 0
-24 -50 453 0
-454 25 0
-454 49 0
-25 -49 454 0
-455 26 0
-455 48 0
-26 -48 455 0
-456 27 0
-456 47 0
-27 -47 456 0
-457 28 0
-457 46 0
-28 -46 457 0
-458 29 0
-458 45 0
-29 -45 458 0
-459 30 0
-459 44 0
-30 -44 459 0
-460 31 0
-460 43 0
-31 -43 460 0
-461 32 0
-461 42 0
-32 -42 461 0
-462 33 0
-462 41 0
-33 -41 462 0
-463 34 0
-463 40 0
-34 -40 463 0
-464 35 0
-464 39 0
-35 -39 464 0
-465 36 0
-465 38 0
-36 -38 465 0
-37 437 438 439 440 441 442 443 444 445 446 447 448 449 450 451 452 453 454 455 456 457 458 459 460 461 462 463 464 465 0
37 -437 438 439 440 441 442 443 444 445 446 447 448 449 450 451 452 453 454 455 456 457 458 459 460 461 462 463 464 465 0
37 -438 437 439 440 441 442 443 444 445 446 447 448 449 450 451 452 453 454 455 456 457 458 459 460 461 462 463 464 465 0
37 -439 437 438 440 441 442 443 444 445 446 447 448 449 450 451 452 453 454 455 456 457 458 459 460 461 462 463 464 465 0
37 -440 437 438 439 441 442 443 444 445 446 447 448 449 450 451 452 453 454 455 456 457 458 459 460 461 462 463 464 465 0
37 -441 437 438 439 440 442 443 444 445 446 447 448 449 450 451 452 453 454 455 456 457 458 459 460 461 462 463 464 465 0
37 -442 437 438 439 440 441 443 444 445 446 447 448 449 450 451 452 453 454 455 456 457 458 459 460 461 462 463 464 465 0
37 -443 437 438 439 440 441 442 444 445 446 447 448 449 450 451 452 453 454 455 456 457 458 459 460 461 462 463 464 465 0
37 -444 437 438 439 440 441 442 443 445 446 447 448 449 450 451 452 453 454 455 456 457 458 459 460 461 462 463 464 465 0
37 -445 437 438 439 440 441 442 443 444 446 447 448 449 450 451 452 453 454 455 456 457 458 459 460 461 462 463 464 465 0
37 -446 437 438 439 440 441 442 443 444 445 447 448 449 450 451 452 453 454 455 456 457 458 459 460 461 462 463 464 465 0
37 -447 437 438 439 440 441 442 443 444 445 446 448 449 450 451 452 453 454 455 456 457 458 459 460 461 462 463 464 465 0
37 -448 437 438 439 440 441 442 443 444 445 446 447 449 450 451 452 453 454 455 456 457 458 459 460 461 462 463 464 465 0
37 -449 437 438 439 440 441 442 443 444 445 446 447 448 450 451 452 453 454 455 456 457 458 459 460 461 462 463 464 465 0
37 -450 437 438 439 440 441 442 443 444 445 446 447 448 449 451 452 453 454 455 456 457 458 459 460 461 462 463 464 465 0
37 -451 437 438 439 440 441 442 443 444 445 446 447 448 449 450 452 453 454 455 456 457 458 459 460 461 462 463 464 465 0
37 -452 437 438 439 440 441 442 443 444 445 446 447 448 449 450 451 453 454 455 456 457 458 459 460 461 462 463 464 465 0
37 -453 437 438 439 440 441 442 443 444 445 446 447 448 449 450 451 452 454 455 456 457 458 459 460 461 462 463 464 465 0
37 -454 437 438 439 440 441 442 443 444 445 446 447 448 449 450 451 452 453 455 456 457 458 459 460 461 462 463 464 465 0
37 -455 437 438 439 440 441 442 443 444 445 446 447 448 449 450 451 452 453 454 456 457 458 459 460 461 462 463 464 465 0
37 -456 437 438 439 440 441 442 443 444 445 446 447 448 449 450 451 452 453 454 455 457 458 459 460 461 462 463 464 465 0
37 -457 437 438 439 440 441 442 443 444 445 446 447 448 449 450 451 452 453 454 455 456 458 459 460 461 462 463 464 465 0
37 -458 437 438 439 440 441 442 443 444 445 446 447 448 449 450 451 452 453 454 455 456 457 459 460 461 462 463 464 465 0
37 -459 437 438 439 440 441 442 443 444 445 446 447 448 449 450 451 452 453 454 455 456 457 458 460 461 462 463 464 465 0
37 -460 437 438 439 440 441 442 443 444 445 446 447 448 449 450 451 452 453 454 455 456 457 458 459 461 462 463 464 465 0
37 -461 437 438 439 440 441 442 443 444 445 446 447 448 449 450 451 452 453 454 455 456 457 458 459 460 462 463 464 465 0
37 -462 437 438 439 440 441 442 443 444 445 446 447 448 449 450 451 452 453 454 455 456 457 458 459 460 461 463 464 465 0
37 -463 437 438 439 440 441 442 443 444 445 446 447 448 449 450 451 452 453 454 455 456 457 458 459 460 461 462 464 465 0
37 -464 437 438 439 440 441 442 443 444 445 446 447 448 449 450 451 452 453 454 455 456 457 458 459 460 461 462 463 465 0
37 -465 437 438 439 440 441 442 443 444 445 446 447 448 449 450 451 452 453 454 455 456 457 458 459 460 461 462 463 464 0
-466 1 0
-466 15 0
-1 -15 466 0
-467 2 0
-467 14 0
-2 -14 467 0
-468 3 0
-468 13 0
-3 -13 468 0
-469 4 0
-469 12 0
-4 -12 469 0
-470 5 0
-470 11 0
-5 -11 470 0
-471 6 0
-471 10 0
-6 -10 471 0
-472 7 0
-472 9 0
-7 -9 472 0
-473 16 0
-473 59 0
-16 -59 473 0
-474 17 0
-474 58 0
-17 -58 474 0
-475 18 0
-475 57 0
-18 -57 475 0
-476 19 0
-476 56 0
-19 -56 476 0
-477 20 0
-477 55 0
-20 -55 477 0
-478 21 0
-478 54 0
-21 -54 478 0
-479 22 0
-479 53 0
-22 -53 479 0
-480 23 0
-480 52 0
-23 -52 480 0
-481 24 0
-481 51 0
-24 -51 481 0
-482 25 0
-482 50 0
-25 -50 482 0
-483 26 0
-483 49 0
-26 -49 483 0
-484 27 0
-484 48 0
-27 -48 484 0
-485 28 0
-485 47 0
-28 -47 485 0
-486 29 0
-486 46 0
-29 -46 486 0
-487 30 0
-487 45 0
-30 -45 487 0
-488 31 0
-488 44 0
-31 -44 488 0
-489 32 0
-489 43 0
-32 -43 489 0
-490 33 0
-490 42 0
-33 -42 490 0
-491 34 0
-491 41 0
-34 -41 491 0
-492 35 0
-492 40 0
-35 -40 492 0
-493 36 0
-493 39 0
-36 -39 493 0
-494 37 0
-494 38 0
-37 -38 494 0
-8 466 467 468 469 470 471 472 473 474 475 476 477 478 479 480 481 482 483 484 485 486 487 488 489 490 491 492 493 494 0
8 -466 467 468 469 470 471 472 473 474 475 476 477 478 479 480 481 482 483 484 485 486 487 488 489 490 491 492 493 494 0
8 -467 466 468 469 470 471 472 473 474 475 476 477 478 479 480 481 482 483 484 485 486 487 488 489 490 491 492 493 494 0
8 -468 466 467 469 470 471 472 473 474 475 476 477 478 479 480 481 482 483 484 485 486 487 488 489 490 491 492 493 494 0
8 -469 466 467 468 470 471 472 473 474 475 476 477 478 479 480 481 482 483 484 485 486 487 488 489 490 491 492 493 494 0
8 -470 466 467 468 469 471 472 473 474 475 476 477 478 479 480 481 482 483 484 485 486 487 488 489 490 491 492 493 494 0
8 -471 466 467 468 469 470 472 473 474 475 476 477 478 479 480 481 482 483 484 485 486 487 488 489 490 491 492 493 494 0
8 -472 466 467 468 469 470 471 473 474 475 476 477 478 479 480 481 482 483 484 485 486 487 488 489 490 491 492 493 494 0
8 -473 466 467 468 469 470 471 472 474 475 476 477 478 479 480 481 482 483 484 485 486 487 488 489 490 491 492 493 494 0
8 -474 466 467 468 469 470 471 472 473 475 476 477 478 479 480 481 482 483 484 485 486 487 488 489 490 491 492 493 494 0
8 -475 466 467 468 469 470 471 472 473 474 476 477 478 479 480 481 482 483 484 485 486 487 488 489 490 491 492 493 494 0
8 -476 466 467 468 469 470 471 472 473 474 475 477 478 479 480 481 482 483 484 485 486 487 488 489 490 491 492 493 494 0
8 -477 466 467 468 469 470 471 472 473 474 475 476 478 479 480 481 482 483 484 485 486 487 488 489 490 491 492 493 494 0
8 -478 466 467 468 469 470 471 472 473 474 475 476 477 479 480 481 482 483 484 485 486 487 488 489 490 491 492 493 494 0
8 -479 466 467 468 469 470 471 472 473 474 475 476 477 478 480 481 482 483 484 485 486 487 488 489 490 491 492 493 494 0
8 -480 466 467 468 469 470 471 472 473 474 475 476 477 478 479 481 482 483 484 485 486 487 488 489 490 491 492 493 494 0
8 -481 466 467 468 469 470 471 472 473 474 475 476 477 478 479 480 482 483 484 485 486 487 488 489 490 491 492 493 494 0
8 -482 466 467 468 469 470 471 472 473 474 475 476 477 478 479 480 481 483 484 485 486 487 488 489 490 491 492 493 494 0
8 -483 466 467 468 469 470 471 472 473 474 475 476 477 478 479 480 481 482 484 485 486 487 488 489 490 491 492 493 494 0
8 -484 466 467 468 469 470 471 472 473 474 475 476 477 478 479 480 481 482 483 485 486 487 488 489 490 491 492 493 494 0
8 -485 466 467 468 469 470 471 472 473 474 475 476 477 478 479 480 481 482 483 484 486 487 488 489 490 491 492 493 494 0
8 -486 466 467 468 469 470 471 472 473 474 475 476 477 478 479 480 481 482 483 484 485 487 488 489 490 491 492 493 494 0
8 -487 466 467 468 469 470 471 472 473 474 475 476 477 478 479 480 481 482 483 484 485 486 488 489 490 491 492 493 494 0
8 -488 466 467 468 469 470 471 472 473 474 475 476 477 478 479 480 481 482 483 484 485 486 487 489 490 491 492 493 494 0
8 -489 466 467 468 469 470 471 472 473 474 475 476 477 478 479 480 481 482 483 484 485 486 487 488 490 491 492 493 494 0
8 -490 466 467 468 469 470 471 472 473 474 475 476 477 478 479 480 481 482 483 484 485 486 487 488 489 491 492 493 494 0
8 -491 466 467 468 469 470 471 472 473 474 475 476 477 478 479 480 481 482 483 484 485 486 487 488 489 490 492 493 494 0
8 -492 466 467 468 469 470 471 472 473 474 475 476 477 478 479 480 481 482 483 484 485 486 487 488 489 490 491 493 494 0
8 -493 466 467 468 469 470 471 472 473 474 475 476 477 478 479 480 481 482 483 484 485 486 487 488 489 490 491 492 494 0
8 -494 466 467 468 469 470 471 472 473 474 475 476 477 478 479 480 481 482 483 484 485 486 487 488 489 490 491 492 493 0
-495 1 0
-495 16 0
-1 -16 495 0
-496 2 0
-496 15 0
-2 -15 496 0
-497 3 0
-497 14 0
-3 -14 497 0
-498 4 0
-498 13 0
-4 -13 498 0
-499 5 0
-499 12 0
-5 -12 499 0
-500 6 0
-500 11 0
-6 -11 500 0
-501 7 0
-501 10 0
-7 -10 501 0
-502 8 0
-502 9 0
-8 -9 502 0
-503 17 0
-503 59 0
-17 -59 503 0
-504 18 0
-504 58 0
-18 -58 504 0
-505 19 0
-505 57 0
-19 -57 505 0
-506 20 0
-506 56 0
-20 -56 506 0
-507 21 0
-507 55 0
-21 -55 507 0
-508 22 0
-508 54 0
-22 -54 508 0
-509 23 0
-509 53 0
-23 -53 509 0
-510 24 0
-510 52 0
-24 -52 510 0
-511 25 0
-511 51 0
-25 -51 511 0
-512 26 0
-512 50 0
-26 -50 512 0
-513 27 0
-513 49 0
-27 -49 513 0
-514 28 0
-514 48 0
-28 -48 514 0
-515 29 0
-515 47 0
-29 -47 515 0
-516 30 0
-516 46 0
-30 -46 516 0
-517 31 0
-517 45 0
-31 -45 517 0
-518 32 0
-518 44 0
-32 -44 518 0
-519 33 0
-519 43 0
-33 -43 519 0
-520 34 0
-520 42 0
-34 -42 520 0
-521 35 0
-521 41 0
-35 -41 521 0
-522 36 0
-522 40 0
-36 -40 522 0
-523 37 0
-523 39 0
-37 -39 523 0
-38 495 496 497 498 499 500 501 502 503 504 505 506 507 508 509 510 511 512 513 514 515 516 517 518 519 520 521 522 523 0
38 -495 496 497 498 499 500 501 502 503 504 505 506 507 508 509 510 511 512 513 514 515 516 517 518 519 520 521 522 523 0
38 -496 495 497 498 499 500 501 502 503 504 505 506 507 508 509 510 511 512 513 514 515 516 517 518 519 520 521 522 523 0
38 -497 495 496 498 499 500 501 502 503 504 505 506 507 508 509 510 511 512 513 514 515 516 517 518 519 520 521 522 523 0
38 -498 495 496 497 499 500 501 502 503 504 505 506 507 508 509 510 511 512 513 514 515 516 517 518 519 520 521 522 523 0
38 -499 495 496 497 498 500 501 502 503 504 505 506 507 508 509 510 511 512 513 514 515 516 517 518 519 520 521 522 523 0
38 -500 495 496 497 498 499 501 502 503 504 505 506 507 508 509 510 511 512 513 514 515 516 517 518 519 520 521 522 523 0
38 -501 495 496 497 498 499 500 502 503 504 505 506 507 508 509 510 511 512 513 514 515 516 517 518 519 520 521 522 523 0
38 -502 495 496 497 498 499 500 501 503 504 505 506 507 508 509 510 511 512 513 514 515 516 517 518 519 520 521 522 523 0
38 -503 495 496 497 498 499 500 501 502 504 505 506 507 508 509 510 511 512 513 514 515 516 517 518 519 520 521 522 523 0
38 -504 495 496 497 498 499 500 501 502 503 505 506 507 508 509 510 511 512 513 514 515 516 517 518 519 520 521 522 523 0
38 -505 495 496 497 498 499 500 501 502 503 504 506 507 508 509 510 511 512 513 514 515 516 517 518 519 520 521 522 523 0
38 -506 495 496 497 498 499 500 501 502 503 504 505 507 508 509 510 511 512 513 514 515 516 517 518 519 520 521 522 523 0
38 -507 495 496 497 498 499 500 501 502 503 504 505 506 508 509 510 511 512 513 514 515 516 517 518 519 520 521 522 523 0
38 -508 495 496 497 498 499 500 501 502 503 504 505 506 507 509 510 511 512 513 514 515 516 517 518 519 520 521 522 523 0
38 -509 495 496 497 498 499 500 501 502 503 504 505 506 507 508 510 511 512 513 514 515 516 517 518 519 520 521 522 523 0
38 -510 495 496 497 498 499 500 501 502 503 504 505 506 507 508 509 511 512 513 514 515 516 517 518 519 520 521 522 523 0
38 -511 495 496 497 498 499 500 501 502 503 504 505 506 507 508 509 510 512 513 514 515 516 517 518 519 520 521 522 523 0
38 -512 495 496 497 498 499 500 501 502 503 504 505 506 507 508 509 510 511 513 514 515 516 517 518 519 520 521 522 523 0
38 -513 495 496 497 498 499 500 501 502 503 504 505 506 507 508 509 510 511 512 514 515 516 517 518 519 520 521 522 523 0
38 -514 495 496 497 498 499 500 501 502 503 504 505 506 507 508 509 510 511 512 513 515 516 517 518 519 520 521 522 523 0
38 -515 495 496 497 498 499 500 501 502 503 504 505 506 507 508 509 510 511 512 513 514 516 517 518 519 520 521 522 523 0
38 -516 495 496 497 498 499 500 501 502 503 504 505 506 507 508 509 510 511 512 513 514 515 517 518 519 520 521 522 523 0
38 -517 495 496 497 498 499 500 501 502 503 504 505 506 507 508 509 510 511 512 513 514 515 516 518 519 520 521 522 523 0
38 -518 495 496 497 498 499 500 501 502 503 504 505 506 507 508 509 510 511 512 513 514 515 516 517 519 520 521 522 523 0
38 -519 495 496 497 498 499 500 501 502 503 504 505 506 507 508 509 510 511 512 513 514 515 516 517 518 520 521 522 523 0
38 -520 495 496 497 498 499 500 501 502 503 504 505 506 507 508 509 510 511 512 513 514 515 516 517 518 519 521 522 523 0
38 -521 495 496 497 498 499 500 501 502 503 504 505 506 507 508 509 510 511 512 513 514 515 516 517 518 519 520 522 523 0
38 -522 495 496 497 498 499 500 501 502 503 504 505 506 507 508 509 510 511 512 513 514 515 516 517 518 519 520 521 523 0
38 -523 495 496 497 498 499 500 501 502 503 504 505 506 507 508 509 510 511 512 513 514 515 516 517 518 519 520 521 522 0
-524 1 0
-524 17 0
-1 -17 524 0
-525 2 0
-525 16 0
-2 -16 525 0
-526 3 0
-526 15 0
-3 -15 526 0
-527 4 0
-527 14 0
-4 -14 527 0
-528 5 0
-528 13 0
-5 -13 528 0
-529 6 0
-529 12 0
-6 -12 529 0
-530 7 0
-530 11 0
-7 -11 530 0
-531 8 0
-531 10 0
-8 -10 531 0
-532 18 0
-532 59 0
-18 -59 532 0
-533 19 0
-533 58 0
-19 -58 533 0
-534 20 0
-534 57 0
-20 -57 534 0
-535 21 0
-535 56 0
-21 -56 535 0
-536 22 0
-536 55 0
-22 -55 536 0
-537 23 0
-537 54 0
-23 -54 537 0
-538 24 0
-538 53 0
-24 -53 538 0
-539 25 0
-539 52 0
-25 -52 539 0
-540 26 0
-540 51 0
-26 -51 540 0
-541 27 0
-541 50 0
-27 -50 541 0
-542 28 0
-542 49 0
-28 -49 542 0
-543 29 0
-543 48 0
-29 -48 543 0
-544 30 0
-544 47 0
-30 -47 544 0
-545 31 0
-545 46 0
-31 -46 545 0
-546 32 0
-546 45 0
-32 -45 546 0
-547 33 0
-547 44 0
-33 -44 547 0
-548 34 0
-548 43 0
-34 -43 548 0
-549 35 0
-549 42 0
-35 -42 549 0
-550 36 0
-550 41 0
-36 -41 550 0
-551 37 0
-551 40 0
-37 -40 551 0
-552 38 0
-552 39 0
-38 -39 552 0
-9 524 525 526 527 528 529 530 531 532 533 534 535 536 537 538 539 540 541 542 543 544 545 546 547 548 549 550 551 552 0
9 -524 525 526 527 528 529 530 531 532 533 534 535 536 537 538 539 540 541 542 543 544 545 546 547 548 549 550 551 552 0
9 -525 524 526 527 528 529 530 531 532 533 534 535 536 537 538 539 540 541 542 543 544 545 546 547 548 549 550 551 552 0
9 -526 524 525 527 528 529 530 531 532 533 534 535 536 537 538 539 540 541 542 543 544 545 546 547 548 549 550 551 552 0
9 -527 524 525 526 528 529 530 531 532 533 534 535 536 537 538 539 540 541 542 543 544 545 546 547 548 549 550 551 552 0
9 -528 524 525 526 527 529 530 531 532 533 534 535 536 537 538 539 540 541 542 543 544 545 546 547 548 549 550 551 552 0
9 -529 524 525 526 527 528 530 531 532 533 534 535 536 537 538 539 540 541 542 543 544 545 546 547 548 549 550 551 552 0
9 -530 524 525 526 527 528 529 531 532 533 534 535 536 537 538 539 540 541 542 543 544 545 546 547 548 549 550 551 552 0
9 -531 524 525 526 527 528 529 530 532 533 534 535 536 537 538 539 540 541 542 543 544 545 546 547 548 549 550 551 552 0
9 -532 524 525 526 527 528 529 530 531 533 534 535 536 537 538 539 540 541 542 543 544 545 546 547 548 549 550 551 552 0
9 -533 524 525 526 527 528 529 530 531 532 534 535 536 537 538 539 540 541 542 543 544 545 546 547 548 549 550 551 552 0
9 -534 524 525 526 527 528 529 530 531 532 533 535 536 537 538 539 540 541 542 543 544 545 546 547 548 549 550 551 552 0
9 -535 524 525 526 527 528 529 530 531 532 533 534 536 537 538 539 540 541 542 543 544 545 546 547 548 549 550 551 552 0
9 -536 524 525 526 527 528 529 530 531 532 533 534 535 537 538 539 540 541 542 543 544 545 546 547 548 549 550 551 552 0
9 -537 524 525 526 527 528 529 530 531 532 533 534 535 536 538 539 540 541 542 543 544 545 546 547 548 549 550 551 552 0
9 -538 524 525 526 527 528 529 530 531 532 533 534 535 536 537 539 540 541 542 543 544 545 546 547 548 549 550 551 552 0
9 -539 524 525 526 527 528 529 530 531 532 533 534 535 536 537 538 540 541 542 543 544 545 546 547 548 549 550 551 552 0
9 -540 524 525 526 527 528 529 530 531 532 533 534 535 536 537 538 539 541 542 543 544 545 546 547 548 549 550 551 552 0
9 -541 524 525 526 527 528 529 530 531 532 533 534 535 536 537 538 539 540 542 543 544 545 546 547 548 549 550 551 552 0
9 -542 524 525 526 527 528 529 530 531 532 533 534 535 536 537 538 539 540 541 543 544 545 546 547 548 549 550 551 552 0
9 -543 524 525 526 527 528 529 530 531 532 533 534 535 536 537 538 539 540 541 542 544 545 546 547 548 549 550 551 552 0
9 -544 524 525 526 527 528 529 530 531 532 533 534 535 536 537 538 539 540 541 542 543 545 546 547 548 549 550 551 552 0
9 -545 524 525 526 527 528 529 530 531 532 533 534 535 536 537 538 539 540 541 542 543 544 546 547 548 549 550 551 552 0
9 -546 524 525 526 527 528 529 530 531 532 533 534 535 536 537 538 539 540 541 542 543 544 545 547 548 549 550 551 552 0
9 -547 524 525 526 527 528 529 530 531 532 533 534 535 536 537 538 539 540 541 542 543 544 545 546 548 549 550 551 552 0
9 -548 524 525 526 527 528 529 530 531 532 533 534 535 536 537 538 539 540 541 542 543 544 545 546 547 549 550 551 552 0
9 -549 524 525 526 527 528 529 530 531 532 533 534 535 536 537 538 539 540 541 542 543 544 545 546 547 548 550 551 552 0
9 -550 524 525 526 527 528 529 530 531 532 533 534 535 536 537 538 539 540 541 542 543 544 545 546 547 548 549 551 552 0
9 -551 524 525 526 527 528 529 530 531 532 533 534 535 536 537 538 539 540 541 542 543 544 545 546 547 548 549 550 552 0
9 -552 524 525 526 527 528 529 530 531 532 533 534 535 536 537 538 539 540 541 542 543 544 545 546 547 548 549 550 551 0
-553 1 0
-553 18 0
-1 -18 553 0
-554 2 0
-554 17 0
-2 -17 554 0
-555 3 0
-555 16 0
-3 -16 555 0
-556 4 0
-556 15 0
-4 -15 556 0
-557 5 0
-557 14 0
-5 -14 557 0
-558 6 0
-558 13 0
-6 -13 558 0
-559 7 0
-559 12 0
-7 -12 559 0
-560 8 0
-560 11 0
-8 -11 560 0
-561 9 0
-561 10 0
-9 -10 561 0
-562 19 0
-562 59 0
-19 -59 562 0
-563 20 0
-563 58 0
-20 -58 563 0
-564 21 0
-564 57 0
-21 -57 564 0
-565 22 0
-565 56 0
-22 -56 565 0
-566 23 0
-566 55 0
-23 -55 566 0
-567 24 0
-567 54 0
-24 -54 567 0
-568 25 0
-568 53 0
-25 -53 568 0
-569 26 0
-569 52 0
-26 -52 569 0
-570 27 0
-570 51 0
-27 -51 570 0
-571 28 0
-571 50 0
-28 -50 571 0
-572 29 0
-572 49 0
-29 -49 572 0
-573 30 0
-573 48 0
-30 -48 573 0
-574 31 0
-574 47 0
-31 -47 574 0
-575 32 0
-575 46 0
-32 -46 575 0
-576 33 0
-576 45 0
-33 -45 576 0
-577 34 0
-577 44 0
-34 -44 577 0
-578 35 0
-578 43 0
-35 -43 578 0
-579 36 0
-579 42 0
-36 -42 579 0
-580 37 0
-580 41 0
-37 -41 580 0
-581 38 0
-581 40 0
-38 -40 581 0
-39 553 554 555 556 557 558 559 560 561 562 563 564 565 566 567 568 569 570 571 572 573 574 575 576 577 578 579 580 581 0
39 -553 554 555 556 557 558 559 560 561 562 563 564 565 566 567 568 569 570 571 572 573 574 575 576 577 578 579 580 581 0
39 -554 553 555 556 557 558 559 560 561 562 563 564 565 566 567 568 569 570 571 572 573 574 575 576 577 578 579 580 581 0
39 -555 553 554 556 557 558 559 560 561 562 563 564 565 566 567 568 569 570 571 572 573 574 575 576 577 578 579 580 581 0
39 -556 553 554 555 557 558 559 560 561 562 563 564 565 566 567 568 569 570 571 572 573 574 575 576 577 578 579 580 581 0
39 -557 553 554 555 556 558 559 560 561 562 563 564 565 566 567 568 569 570 571 572 573 574 575 576 577 578 579 580 581 0
39 -558 553 554 555 556 557 559 560 561 562 563 564 565 566 567 568 569 570 571 572 573 574 575 576 577 578 579 580 581 0
39 -559 553 554 555 556 557 558 560 561 562 563 564 565 566 567 568 569 570 571 572 573 574 575 576 577 578 579 580 581 0
39 -560 553 554 555 556 557 558 559 561 562 563 564 565 566 567 568 569 570 571 572 573 574 575 576 577 578 579 580 581 0
39 -561 553 554 555 556 557 558 559 560 562 563 564 565 566 567 568 569 570 571 572 573 574 575 576 577 578 579 580 581 0
39 -562 553 554 555 556 557 558 559 560 561 563 564 565 566 567 568 569 570 571 572 573 574 575 576 577 578 579 580 581 0
39 -563 553 554 555 556 557 558 559 560 561 562 564 565 566 567 568 569 570 571 572 573 574 575 576 577 578 579 580 581 0
39 -564 553 554 555 556 557 558 559 560 561 562 563 565 566 567 568 569 570 571 572 573 574 575 576 577 578 579 580 581 0
39 -565 553 554 555 556 557 558 559 560 561 562 563 564 566 567 568 569 570 571 572 573 574 575 576 577 578 579 580 581 0
39 -566 553 554 555 556 557 558 559 560 561 562 563 564 565 567 568 569 570 571 572 573 574 575 576 577 578 579 580 581 0
39 -567 553 554 555 556 557 558 559 560 561 562 563 564 565 566 568 569 570 571 572 573 574 575 576 577 578 579 580 581 0
39 -568 553 554 555 556 557 558 559 560 561 562 563 564 565 566 567 569 570 571 572 573 574 575 576 577 578 579 580 581 0
39 -569 553 554 555 556 557 558 559 560 561 562 563 564 565 566 567 568 570 571 572 573 574 575 576 577 578 579 580 581 0
39 -570 553 554 555 556 557 558 559 560 561 562 563 564 565 566 567 568 569 571 572 573 574 575 576 577 578 579 580 581 0
39 -571 553 554 555 556 557 558 559 560 561 562 563 564 565 566 567 568 569 570 572 573 574 575 576 577 578 579 580 581 0
39 -572 553 554 555 556 557 558 559 560 561 562 563 564 565 566 567 568 569 570 571 573 574 575 576 577 578 579 580 581 0
39 -573 553 554 555 556 557 558 559 560 561 562 563 564 565 566 567 568 569 570 571 572 574 575 576 577 578 579 580 581 0
39 -574 553 554 555 556 557 558 559 560 561 562 563 564 565 566 567 568 569 570 571 572 573 575 576 577 578 579 580 581 0
39 -575 553 554 555 556 557 558 559 560 561 562 563 564 565 566 567 568 569 570 571 572 573 574 576 577 578 579 580 581 0
39 -576 553 554 555 556 557 558 559 560 561 562 563 564 565 566 567 568 569 570 571 572 573 574 575 577 578 579 580 581 0
39 -577 553 554 555 556 557 558 559 560 561 562 563 564 565 566 567 568 569 570 571 572 573 574 575 576 578 579 580 581 0
39 -578 553 554 555 556 557 558 559 560 561 562 563 564 565 566 567 568 569 570 571 572 573 574 575 576 577 579 580 581 0
39 -579 553 554 555 556 557 558 559 560 561 562 563 564 565 566 567 568 569 570 571 572 573 574 575 576 577 578 580 581 0
39 -580 553 554 555 556 557 558 559 560 561 562 563 564 565 566 567 568 569 570 571 572 573 574 575 576 577 578 579 581 0
39 -581 553 554 555 556 557 558 559 560 561 562 563 564 565 566 567 568 569 570 571 572 573 574 575 576 577 578 579 580 0
-582 1 0
-582 19 0
-1 -19 582 0
-583 2 0
-583 18 0
-2 -18 583 0
-584 3 0
-584 17 0
-3 -17 584 0
-585 4 0
-585 16 0
-4 -16 585 0
-586 5 0
-586 15 0
-5 -15 586 0
-587 6 0
-587 14 0
-6 -14 587 0
-588 7 0
-588 13 0
-7 -13 588 0
-589 8 0
-589 12 0
-8 -12 589 0
-590 9 0
-590 11 0
-9 -11 590 0
-591 20 0
-591 59 0
-20 -59 591 0
-592 21 0
-592 58 0
-21 -58 592 0
-593 22 0
-593 57 0
-22 -57 593 0
-594 23 0
-594 56 0
-23 -56 594 0
-595 24 0
-595 55 0
-24 -55 595 0
-596 25 0
-596 54 0
-25 -54 596 0
-597 26 0
-597 53 0
-26 -53 597 0
-598 27 0
-598 52 0
-27 -52 598 0
-599 28 0
-599 51 0
-28 -51 599 0
-600 29 0
-600 50 0
-29 -50 600 0
-601 30 0
-601 49 0
-30 -49 601 0
-602 31 0
-602 48 0
-31 -48 602 0
-603 32 0
-603 47 0
-32 -47 603 0
-604 33 0
-604 46 0
-33 -46 604 0
-605 34 0
-605 45 0
-34 -45 605 0
-606 35 0
-606 44 0
-35 -44 606 0
-607 36 0
-607 43 0
-36 -43 607 0
-608 37 0
-608 42 0
-37 -42 608 0
-609 38 0
-609 41 0
-38 -41 609 0
-610 39 0
-610 40 0
-39 -40 610 0
-10 582 583 584 585 586 587 588 589 590 591 592 593 594 595 596 597 598 599 600 601 602 603 604 605 606 607 608 609 610 0
10 -582 583 584 585 586 587 588 589 590 591 592 593 594 595 596 597 598 599 600 601 602 603 604 605 606 607 608 609 610 0
10 -583 582 584 585 586 587 588 589 590 591 592 593 594 595 596 597 598 599 600 601 602 603 604 605 606 607 608 609 610 0
10 -584 582 583 585 586 587 588 589 590 591 592 593 594 595 596 597 598 599 600 601 602 603 604 605 606 607 608 609 610 0
10 -585 582 583 584 586 587 588 589 590 591 592 593 594 595 596 597 598 599 600 601 602 603 604 605 606 607 608 609 610 0
10 -586 582 583 584 585 587 588 589 590 591 592 593 594 595 596 597 598 599 600 601 602 603 604 605 606 607 608 609 610 0
10 -587 582 583 584 585 586 588 589 590 591 592 593 594 595 596 597 598 599 600 601 602 603 604 605 606 607 608 609 610 0
10 -588 582 583 584 585 586 587 589 590 591 592 593 594 595 596 597 598 599 600 601 602 603 604 605 606 607 608 609 610 0
10 -589 582 583 584 585 586 587 588 590 591 592 593 594 595 596 597 598 599 600 601 602 603 604 605 606 607 608 609 610 0
10 -590 582 583 584 585 586 587 588 589 591 592 593 594 595 596 597 598 599 600 601 602 603 604 605 606 607 608 609 610 0
10 -591 582 583 584 585 586 587 588 589 590 592 593 594 595 596 597 598 599 600 601 602 603 604 605 606 607 608 609 610 0
10 -592 582 583 584 585 586 587 588 589 590 591 593 594 595 596 597 598 599 600 601 602 603 604 605 606 607 608 609 610 0
10 -593 582 583 584 585 586 587 588 589 590 591 592 594 595 596 597 598 599 600 601 602 603 604 605 606 607 608 609 610 0
10 -594 582 583 584 585 586 587 588 589 590 591 592 593 595 596 597 598 599 600 601 602 603 604 605 606 607 608 609 610 0
10 -595 582 583 584 585 586 587 588 589 590 591 592 593 594 596 597 598 599 600 601 602 603 604 605 606 607 608 609 610 0
10 -596 582 583 584 585 586 587 588 589 590 591 592 593 594 595 597 598 599 600 601 602 603 604 605 606 607 608 609 610 0
10 -597 582 583 584 585 586 587 588 589 590 591 592 593 594 595 596 598 599 600 601 602 603 604 605 606 607 608 609 610 0
10 -598 582 583 584 585 586 587 588 589 590 591 592 593 594 595 596 597 599 600 601 602 603 604 605 606 607 608 609 610 0
10 -599 582 583 584 585 586 587 588 589 590 591 592 593 594 595 596 597 598 600 601 602 603 604 605 606 607 608 609 610 0
10 -600 582 583 584 585 586 587 588 589 590 591 592 593 594 595 596 597 598 599 601 602 603 604 605 606 607 608 609 610 0
10 -601 582 583 584 585 586 587 588 589 590 591 592 593 594 595 596 597 598 599 600 602 603 604 605 606 607 608 609 610 0
10 -602 582 583 584 585 586 587 588 589 590 591 592 593 594 595 596 597 598 599 600 601 603 604 605 606 607 608 609 610 0
10 -603 582 583 584 585 586 587 588 589 590 591 592 593 594 595 596 597 598 599 600 601 602 604 605 606 607 608 609 610 0
10 -604 582 583 584 585 586 587 588 589 590 591 592 593 594 595 596 597 598 599 600 601 602 603 605 606 607 608 609 610 0
10 -605 582 583 584 585 586 587 588 589 590 591 592 593 594 595 596 597 598 599 600 601 602 603 604 606 607 608 609 610 0
10 -606 582 583 584 585 586 587 588 589 590 591 592 593 594 595 596 597 598 599 600 601 602 603 604 605 607 608 609 610 0
10 -607 582 583 584 585 586 587 588 589 590 591 592 593 594 595 596 597 598 599 600 601 602 603 604 605 606 608 609 610 0
10 -608 582 583 584 585 586 587 588 589 590 591 592 593 594 595 596 597 598 599 600 601 602 603 604 605 606 607 609 610 0
10 -609 582 583 584 585 586 587 588 589 590 591 592 593 594 595 596 597 598 599 600 601 602 603 604 605 606 607 608 610 0
10 -610 582 583 584 585 586 587 588 589 590 591 592 593 594 595 596 597 598 599 600 601 602 603 604 605 606 607 608 609 0
-611 1 0
-611 20 0
-1 -20 611 0
-612 2 0
-612 19 0
-2 -19 612 0
-613 3 0
-613 18 0
-3 -18 613 0
-614 4 0
-614 17 0
-4 -17 614 0
-615 5 0
-615 16 0
-5 -16 615 0
-616 6 0
-616 15 0
-6 -15 616 0
-617 7 0
-617 14 0
-7 -14 617 0
-618 8 0
-618 13 0
-8 -13 618 0
-619 9 0
-619 12 0
-9 -12 619 0
-620 10 0
-620 11 0
-10 -11 620 0
-621 21 0
-621 59 0
-21 -59 621 0
-622 22 0
-622 58 0
-22 -58 622 0
-623 23 0
-623 57 0
-23 -57 623 0
-624 24 0
-624 56 0
-24 -56 624 0
-625 25 0
-625 55 0
-25 -55 625 0
-626 26 0
-626 54 0
-26 -54 626 0
-627 27 0
-627 53 0
-27 -53 627 0
-628 28 0
-628 52 0
-28 -52 628 0
-629 29 0
-629 51 0
-29 -51 629 0
-630 30 0
-630 50 0
-30 -50 630 0
-631 31 0
-631 49 0
-31 -49 631 0
-632 32 0
-632 48 0
-32 -48 632 0
-633 33 0
-633 47 0
-33 -47 633 0
-634 34 0
-634 46 0
-34 -46 634 0
-635 35 0
-635 45 0
-35 -45 635 0
-636 36 0
-636 44 0
-36 -44 636 0
-637 37 0
-637 43 0
-37 -43 637 0
-638 38 0
-638 42 0
-38 -42 638 0
-639 39 0
-639 41 0
-39 -41 639 0
-40 611 612 613 614 615 616 617 618 619 620 621 622 623 624 625 626 627 628 629 630 631 632 633 634 635 636 637 638 639 0
40 -611 612 613 614 615 616 617 618 619 620 621 622 623 624 625 626 627 628 629 630 631 632 633 634 635 636 637 638 639 0
40 -612 611 613 614 615 616 617 618 619 620 621 622 623 624 625 626 627 628 629 630 631 632 633 634 635 636 637 638 639 0
40 -613 611 612 614 615 616 617 618 619 620 621 622 623 624 625 626 627 628 629 630 631 632 633 634 635 636 637 638 639 0
40 -614 611 612 613 615 616 617 618 619 620 621 622 623 624 625 626 627 628 629 630 631 632 633 634 635 636 637 638 639 0
40 -615 611 612 613 614 616 617 618 619 620 621 622 623 624 625 626 627 628 629 630 631 632 633 634 635 636 637 638 639 0
40 -616 611 612 613 614 615 617 618 619 620 621 622 623 624 625 626 627 628 629 630 631 632 633 634 635 636 637 638 639 0
40 -617 611 612 613 614 615 616 618 619 620 621 622 623 624 625 626 627 628 629 630 631 632 633 634 635 636 637 638 639 0
40 -618 611 612 613 614 615 616 617 619 620 621 622 623 624 625 626 627 628 629 630 631 632 633 634 635 636 637 638 639 0
40 -619 611 612 613 614 615 616 617 618 620 621 622 623 624 625 626 627 628 629 630 631 632 633 634 635 636 637 638 639 0
40 -620 611 612 613 614 615 616 617 618 619 621 622 623 624 625 626 627 628 629 630 631 632 633 634 635 636 637 638 639 0
40 -621 611 612 613 614 615 616 617 618 619 620 622 623 624 625 626 627 628 629 630 631 632 633 634 635 636 637 638 639 0
40 -622 611 612 613 614 615 616 617 618 619 620 621 623 624 625 626 627 628 629 630 631 632 633 634 635 636 637 638 639 0
40 -623 611 612 613 614 615 616 617 618 619 620 621 622 624 625 626 627 628 629 630 631 632 633 634 635 636 637 638 639 0
40 -624 611 612 613 614 615 616 617 618 619 620 621 622 623 625 626 627 628 629 630 631 632 633 634 635 636 637 638 639 0
40 -625 611 612 613 614 615 616 617 618 619 620 621 622 623 624 626 627 628 629 630 631 632 633 634 635 636 637 638 639 0
40 -626 611 612 613 614 615 616 617 618 619 620 621 622 623 624 625 627 628 629 630 631 632 633 634 635 636 637 638 639 0
40 -627 611 612 613 614 615 616 617 618 619 620 621 622 623 624 625 626 628 629 630 631 632 633 634 635 636 637 638 639 0
40 -628 611 612 613 614 615 616 617 618 619 620 621 622 623 624 625 626 627 629 630 631 632 633 634 635 636 637 638 639 0
40 -629 611 612 613 614 615 616 617 618 619 620 621 622 623 624 625 626 627 628 630 631 632 633 634 635 636 637 638 639 0
40 -630 611 612 613 614 615 616 617 618 619 620 621 622 623 624 625 626 627 628 629 631 632 633 634 635 636 637 638 639 0
40 -631 611 612 613 614 615 616 617 618 619 620 621 622 623 624 625 626 627 628 629 630 632 633 634 635 636 637 638 639 0
40 -632 611 612 613 614 615 616 617 618 619 620 621 622 623 624 625 626 627 628 629 630 631 633 634 635 636 637 638 639 0
40 -633 611 612 613 614 615 616 617 618 619 620 621 622 623 624 625 626 627 628 629 630 631 632 634 635 636 637 638 639 0
40 -634 611 612 613 614 615 616 617 618 619 620 621 622 623 624 625 626 627 628 629 630 631 632 633 635 636 637 638 639 0
40 -635 611 612 613 614 615 616 617 618 619 620 621 622 623 624 625 626 627 628 629 630 631 632 633 634 636 637 638 639 0
40 -636 611 612 613 614 615 616 617 618 619 620 621 622 623 624 625 626 627 628 629 630 631 632 633 634 635 637 638 639 0
40 -637 611 612 613 614 615 616 617 618 619 620 621 622 623 624 625 626 627 628 629 630 631 632 633 634 635 636 638 639 0
40 -638 611 612 613 614 615 616 617 618 619 620 621 622 623 624 625 626 627 628 629 630 631 632 633 634 635 636 637 639 0
40 -639 611 612 613 614 615 616 617 618 619 620 621 622 623 624 625 626 627 628 629 630 631 632 633 634 635 636 637 638 0
-640 1 0
-640 21 0
-1 -21 640 0
-641 2 0
-641 20 0
-2 -20 641 0
-642 3 0
-642 19 0
-3 -19 642 0
-643 4 0
-643 18 0
-4 -18 643 0
-644 5 0
-644 17 0
-5 -17 644 0
-645 6 0
-645 16 0
-6 -16 645 0
-646 7 0
-646 15 0
-7 -15 646 0
-647 8 0
-647 14 0
-8 -14 647 0
-648 9 0
-648 13 0
-9 -13 648 0
-649 10 0
-649 12 0
-10 -12 649 0
-650 22 0
-650 59 0
-22 -59 650 0
-651 23 0
-651 58 0
-23 -58 651 0
-652 24 0
-652 57 0
-24 -57 652 0
-653 25 0
-653 56 0
-25 -56 653 0
-654 26 0
-654 55 0
-26 -55 654 0
-655 27 0
-655 54 0
-27 -54 655 0
-656 28 0
-656 53 0
-28 -53 656 0
-657 29 0
-657 52 0
-29 -52 657 0
-658 30 0
-658 51 0
-30 -51 658 0
-659 31 0
-659 50 0
-31 -50 659 0
-660 32 0
-660 49 0
-32 -49 660 0
-661 33 0
-661 48 0
-33 -48 661 0
-662 34 0
-662 47 0
-34 -47 662 0
-663 35 0
-663 46 0
-35 -46 663 0
-664 36 0
-664 45 0
-36 -45 664 0
-665 37 0
-665 44 0
-37 -44 665 0
-666 38 0
-666 43 0
-38 -43 666 0
-667 39 0
-667 42 0
-39 -42 667 0
-668 40 0
-668 41 0
-40 -41 668 0
-11 640 641 642 643 644 645 646 647 648 649 650 651 652 653 654 655 656 657 658 659 660 661 662 663 664 665 666 667 668 0
11 -640 641 642 643 644 645 646 647 648 649 650 651 652 653 654 655 656 657 658 659 660 661 662 663 664 665 666 667 668 0
11 -641 640 642 643 644 645 646 647 648 649 650 651 652 653 654 655 656 657 658 659 660 661 662 663 664 665 666 667 668 0
11 -642 640 641 643 644 645 646 647 648 649 650 651 652 653 654 655 656 657 658 659 660 661 662 663 664 665 666 667 668 0
11 -643 640 641 642 644 645 646 647 648 649 650 651 652 653 654 655 656 657 658 659 660 661 662 663 664 665 666 667 668 0
11 -644 640 641 642 643 645 646 647 648 649 650 651 652 653 654 655 656 657 658 659 660 661 662 663 664 665 666 667 668 0
11 -645 640 641 642 643 644 646 647 648 649 650 651 652 653 654 655 656 657 658 659 660 661 662 663 664 665 666 667 668 0
11 -646 640 641 642 643 644 645 647 648 649 650 651 652 653 654 655 656 657 658 659 660 661 662 663 664 665 666 667 668 0
11 -647 640 641 642 643 644 645 646 648 649 650 651 652 653 654 655 656 657 658 659 660 661 662 663 664 665 666 667 668 0
11 -648 640 641 642 643 644 645 646 647 649 650 651 652 653 654 655 656 657 658 659 660 661 662 663 664 665 666 667 668 0
11 -649 640 641 642 643 644 645 646 647 648 650 651 652 653 654 655 656 657 658 659 660 661 662 663 664 665 666 667 668 0
11 -650 640 641 642 643 644 645 646 647 648 649 651 652 653 654 655 656 657 658 659 660 661 662 663 664 665 666 667 668 0
11 -651 640 641 642 643 644 645 646 647 648 649 650 652 653 654 655 656 657 658 659 660 661 662 663 664 665 666 667 668 0
11 -652 640 641 642 643 644 645 646 647 648 649 650 651 653 654 655 656 657 658 659 660 661 662 663 664 665 666 667 668 0
11 -653 640 641 642 643 644 645 646 647 648 649 650 651 652 654 655 656 657 658 659 660 661 662 663 664 665 666 667 668 0
11 -654 640 641 642 643 644 645 646 647 648 649 650 651 652 653 655 656 657 658 659 660 661 662 663 664 665 666 667 668 0
11 -655 640 641 642 643 644 645 646 647 648 649 650 651 652 653 654 656 657 658 659 660 661 662 663 664 665 666 667 668 0
11 -656 640 641 642 643 644 645 646 647 648 649 650 651 652 653 654 655 657 658 659 660 661 662 663 664 665 666 667 668 0
11 -657 640 641 642 643 644 645 646 647 648 649 650 651 652 653 654 655 656 658 659 660 661 662 663 664 665 666 667 668 0
11 -658 640 641 642 643 644 645 646 647 648 649 650 651 652 653 654 655 656 657 659 660 661 662 663 664 665 666 667 668 0
11 -659 640 641 642 643 644 645 646 647 648 649 650 651 652 653 654 655 656 657 658 660 661 662 663 664 665 666 667 668 0
11 -660 640 641 642 643 644 645 646 647 648 649 650 651 652 653 654 655 656 657 658 659 661 662 663 664 665 666 667 668 0
11 -661 640 641 642 643 644 645 646 647 648 649 650 651 652 653 654 655 656 657 658 659 660 662 663 664 665 666 667 668 0
11 -662 640 641 642 643 644 645 646 647 648 649 650 651 652 653 654 655 656 657 658 659 660 661 663 664 665 666 667 668 0
11 -663 640 641 642 643 644 645 646 647 648 649 650 651 652 653 654 655 656 657 658 659 660 661 662 664 665 666 667 668 0
11 -664 640 641 642 643 644 645 646 647 648 649 650 651 652 653 654 655 656 657 658 659 660 661 662 663 665 666 667 668 0
11 -665 640 641 642 643 644 645 646 647 648 649 650 651 652 653 654 655 656 657 658 659 660 661 662 663 664 666 667 668 0
11 -666 640 641 642 643 644 645 646 647 648 649 650 651 652 653 654 655 656 657 658 659 660 661 662 663 664 665 667 668 0
11 -667 640 641 642 643 644 645 646 647 648 649 650 651 652 653 654 655 656 657 658 659 660 661 662 663 664 665 666 668 0
11 -668 640 641 642 643 644 645 646 647 648 649 650 651 652 653 654 655 656 657 658 659 660 661 662 663 664 665 666 667 0
-669 1 0
-669 22 0
-1 -22 669 0
-670 2 0
-670 21 0
-2 -21 670 0
-671 3 0
-671 20 0
-3 -20 671 0
-672 4 0
-672 19 0
-4 -19 672 0
-673 5 0
-673 18 0
-5 -18 673 0
-674 6 0
-674 17 0
-6 -17 674 0
-675 7 0
-675 16 0
-7 -16 675 0
-676 8 0
-676 15 0
-8 -15 676 0
-677 9 0
-677 14 0
-9 -14 677 0
-678 10 0
-678 13 0
-10 -13 678 0
-679 11 0
-679 12 0
-11 -12 679 0
-680 23 0
-680 59 0
-23 -59 680 0
-681 24 0
-681 58 0
-24 -58 681 0
-682 25 0
-682 57 0
-25 -57 682 0
-683 26 0
-683 56 0
-26 -56 683 0
-684 27 0
-684 55 0
-27 -55 684 0
-685 28 0
-685 54 0
-28 -54 685 0
-686 29 0
-686 53 0
-29 -53 686 0
-687 30 0
-687 52 0
-30 -52 687 0
-688 31 0
-688 51 0
-31 -51 688 0
-689 32 0
-689 50 0
-32 -50 689 0
-690 33 0
-690 49 0
-33 -49 690 0
-691 34 0
-691 48 0
-34 -48 691 0
-692 35 0
-692 47 0
-35 -47 692 0
-693 36 0
-693 46 0
-36 -46 693 0
-694 37 0
-694 45 0
-37 -45 694 0
-695 38 0
-695 44 0
-38 -44 695 0
-696 39 0
-696 43 0
-39 -43 696 0
-697 40 0
-697 42 0
-40 -42 697 0
-41 669 670 671 672 673 674 675 676 677 678 679 680 681 682 683 684 685 686 687 688 689 690 691 692 693 694 695 696 697 0
41 -669 670 671 672 673 674 675 676 677 678 679 680 681 682 683 684 685 686 687 688 689 690 691 692 693 694 695 696 697 0
41 -670 669 671 672 673 674 675 676 677 678 679 680 681 682 683 684 685 686 687 688 689 690 691 692 693 694 695 696 697 0
41 -671 669 670 672 673 674 675 676 677 678 679 680 681 682 683 684 685 686 687 688 689 690 691 692 693 694 695 696 697 0
41 -672 669 670 671 673 674 675 676 677 678 679 680 681 682 683 684 685 686 687 688 689 690 691 692 693 694 695 696 697 0
41 -673 669 670 671 672 674 675 676 677 678 679 680 681 682 683 684 685 686 687 688 689 690 691 692 693 694 695 696 697 0
41 -674 669 670 671 672 673 675 676 677 678 679 680 681 682 683 684 685 686 687 688 689 690 691 692 693 694 695 696 697 0
41 -675 669 670 671 672 673 674 676 677 678 679 680 681 682 683 684 685 686 687 688 689 690 691 692 693 694 695 696 697 0
41 -676 669 670 671 672 673 674 675 677 678 679 680 681 682 683 684 685 686 687 688 689 690 691 692 693 694 695 696 697 0
41 -677 669 670 671 672 673 674 675 676 678 679 680 681 682 683 684 685 686 687 688 689 690 691 692 693 694 695 696 697 0
41 -678 669 670 671 672 673 674 675 676 677 679 680 681 682 683 684 685 686 687 688 689 690 691 692 693 694 695 696 697 0
41 -679 669 670 671 672 673 674 675 676 677 678 680 681 682 683 684 685 686 687 688 689 690 691 692 693 694 695 696 697 0
41 -680 669 670 671 672 673 674 675 676 677 678 679 681 682 683 684 685 686 687 688 689 690 691 692 693 694 695 696 697 0
41 -681 669 670 671 672 673 674 675 676 677 678 679 680 682 683 684 685 686 687 688 689 690 691 692 693 694 695 696 697 0
41 -682 669 670 671 672 673 674 675 676 677 678 679 680 681 683 684 685 686 687 688 689 690 691 692 693 694 695 696 697 0
41 -683 669 670 671 672 673 674 675 676 677 678 679 680 681 682 684 685 686 687 688 689 690 691 692 693 694 695 696 697 0
41 -684 669 670 671 672 673 674 675 676 677 678 679 680 681 682 683 685 686 687 688 689 690 691 692 693 694 695 696 697 0
41 -685 669 670 671 672 673 674 675 676 677 678 679 680 681 682 683 684 686 687 688 689 690 691 692 693 694 695 696 697 0
41 -686 669 670 671 672 673 674 675 676 677 678 679 680 681 682 683 684 685 687 688 689 690 691 692 693 694 695 696 697 0
41 -687 669 670 671 672 673 674 675 676 677 678 679 680 681 682 683 684 685 686 688 689 690 691 692 693 694 695 696 697 0
41 -688 669 670 671 672 673 674 675 676 677 678 679 680 681 682 683 684 685 686 687 689 690 691 692 693 694 695 696 697 0
41 -689 669 670 671 672 673 674 675 676 677 678 679 680 681 682 683 684 685 686 687 688 690 691 692 693 694 695 696 697 0
41 -690 669 670 671 672 673 674 675 676 677 678 679 680 681 682 683 684 685 686 687 688 689 691 692 693 694 695 696 697 0
41 -691 669 670 671 672 673 674 675 676 677 678 679 680 681 682 683 684 685 686 687 688 689 690 692 693 694 695 696 697 0
41 -692 669 670 671 672 673 674 675 676 677 678 679 680 681 682 683 684 685 686 687 688 689 690 691 693 694 695 696 697 0
41 -693 669 670 671 672 673 674 675 676 677 678 679 680 681 682 683 684 685 686 687 688 689 690 691 692 694 695 696 697 0
41 -694 669 670 671 672 673 674 675 676 677 678 679 680 681 682 683 684 685 686 687 688 689 690 691 692 693 695 696 697 0
41 -695 669 670 671 672 673 674 675 676 677 678 679 680 681 682 683 684 685 686 687 688 689 690 691 692 693 694 696 697 0
41 -696 669 670 671 672 673 674 675 676 677 678 679 680 681 682 683 684 685 686 687 688 689 690 691 692 693 694 695 697 0
41 -697 669 670 671 672 673 674 675 676 677 678 679 680 681 682 683 684 685 686 687 688 689 690 691 692 693 694 695 696 0
-698 1 0
-698 23 0
-1 -23 698 0
-699 2 0
-699 22 0
-2 -22 699 0
-700 3 0
-700 21 0
-3 -21 700 0
-701 4 0
-701 20 0
-4 -20 701 0
-702 5 0
-702 19 0
-5 -19 702 0
-703 6 0
-703 18 0
-6 -18 703 0
-704 7 0
-704 17 0
-7 -17 704 0
-705 8 0
-705 16 0
-8 -16 705 0
-706 9 0
-706 15 0
-9 -15 706 0
-707 10 0
-707 14 0
-10 -14 707 0
-708 11 0
-708 13 0
-11 -13 708 0
-709 24 0
-709 59 0
-24 -59 709 0
-710 25 0
-710 58 0
-25 -58 710 0
-711 26 0
-711 57 0
-26 -57 711 0
-712 27 0
-712 56 0
-27 -56 712 0
-713 28 0
-713 55 0
-28 -55 713 0
-714 29 0
-714 54 0
-29 -54 714 0
-715 30 0
-715 53 0
-30 -53 715 0
-716 31 0
-716 52 0
-31 -52 716 0
-717 32 0
-717 51 0
-32 -51 717 0
-718 33 0
-718 50 0
-33 -50 718 0
-719 34 0
-719 49 0
-34 -49 719 0
-720 35 0
-720 48 0
-35 -48 720 0
-721 36 0
-721 47 0
-36 -47 721 0
-722 37 0
-722 46 0
-37 -46 722 0
-723 38 0
-723 45 0
-38 -45 723 0
-724 39 0
-724 44 0
-39 -44 724 0
-725 40 0
-725 43 0
-40 -43 725 0
-726 41 0
-726 42 0
-41 -42 726 0
-12 698 699 700 701 702 703 704 705 706 707 708 709 710 711 712 713 714 715 716 717 718 719 720 721 722 723 724 725 726 0
12 -698 699 700 701 702 703 704 705 706 707 708 709 710 711 712 713 714 715 716 717 718 719 720 721 722 723 724 725 726 0
12 -699 698 700 701 702 703 704 705 706 707 708 709 710 711 712 713 714 715 716 717 718 719 720 721 722 723 724 725 726 0
12 -700 698 699 701 702 703 704 705 706 707 708 709 710 711 712 713 714 715 716 717 718 719 720 721 722 723 724 725 726 0
12 -701 698 699 700 702 703 704 705 706 707 708 709 710 711 712 713 714 715 716 717 718 719 720 721 722 723 724 725 726 0
12 -702 698 699 700 701 703 704 705 706 707 708 709 710 711 712 713 714 715 716 717 718 719 720 721 722 723 724 725 726 0
12 -703 698 699 700 701 702 704 705 706 707 708 709 710 711 712 713 714 715 716 717 718 719 720 721 722 723 724 725 726 0
12 -704 698 699 700 701 702 703 705 706 707 708 709 710 711 712 713 714 715 716 717 718 719 720 721 722 723 724 725 726 0
12 -705 698 699 700 701 702 703 704 706 707 708 709 710 711 712 713 714 715 716 717 718 719 720 721 722 723 724 725 726 0
12 -706 698 699 700 701 702 703 704 705 707 708 709 710 711 712 713 714 715 716 717 718 719 720 721 722 723 724 725 726 0
12 -707 698 699 700 701 702 703 704 705 706 708 709 710 711 712 713 714 715 716 717 718 719 720 721 722 723 724 725 726 0
12 -708 698 699 700 701 702 703 704 705 706 707 709 710 711 712 713 714 715 716 717 718 719 720 721 722 723 724 725 726 0
12 -709 698 699 700 701 702 703 704 705 706 707 708 710 711 712 713 714 715 716 717 718 719 720 721 722 723 724 725 726 0
12 -710 698 699 700 701 702 703 704 705 706 707 708 709 711 712 713 714 715 716 717 718 719 720 721 722 723 724 725 726 0
12 -711 698 699 700 701 702 703 704 705 706 707 708 709 710 712 713 714 715 716 717 718 719 720 721 722 723 724 725 726 0
12 -712 698 699 700 701 702 703 704 705 706 707 708 709 710 711 713 714 715 716 717 718 719 720 721 722 723 724 725 726 0
12 -713 698 699 700 701 702 703 704 705 706 707 708 709 710 711 712 714 715 716 717 718 719 720 721 722 723 724 725 726 0
12 -714 698 699 700 701 702 703 704 705 706 707 708 709 710 711 712 713 715 716 717 718 719 720 721 722 723 724 725 726 0
12 -715 698 699 700 701 702 703 704 705 706 707 708 709 710 711 712 713 714 716 717 718 719 720 721 722 723 724 725 726 0
12 -716 698 699 700 701 702 703 704 705 706 707 708 709 710 711 712 713 714 715 717 718 719 720 721 722 723 724 725 726 0
12 -717 698 699 700 701 702 703 704 705 706 707 708 709 710 711 712 713 714 715 716 718 719 720 721 722 723 724 725 726 0
12 -718 698 699 700 701 702 703 704 705 706 707 708 709 710 711 712 713 714 715 716 717 719 720 721 722 723 724 725 726 0
12 -719 698 699 700 701 702 703 704 705 706 707 708 709 710 711 712 713 714 715 716 717 718 720 721 722 723 724 725 726 0
12 -720 698 699 700 701 702 703 704 705 706 707 708 709 710 711 712 713 714 715 716 717 718 719 721 722 723 724 725 726 0
12 -721 698 699 700 701 702 703 704 705 706 707 708 709 710 711 712 713 714 715 716 717 718 719 720 722 723 724 725 726 0
12 -722 698 699 700 701 702 703 704 705 706 707 708 709 710 711 712 713 714 715 716 717 718 719 720 721 723 724 725 726 0
12 -723 698 699 700 701 702 703 704 705 706 707 708 709 710 711 712 713 714 715 716 717 718 719 720 721 722 724 725 726 0
12 -724 698 699 700 701 702 703 704 705 706 707 708 709 710 711 712 713 714 715 716 717 718 719 720 721 722 723 725 726 0
12 -725 698 699 700 701 702 703 704 705 706 707 708 709 710 711 712 713 714 715 716 717 718 719 720 721 722 723 724 726 0
12 -726 698 699 700 701 702 703 704 705 706 707 708 709 710 711 712 713 714 715 716 717 718 719 720 721 722 723 724 725 0
-727 1 0
-727 24 0
-1 -24 727 0
-728 2 0
-728 23 0
-2 -23 728 0
-729 3 0
-729 22 0
-3 -22 729 0
-730 4 0
-730 21 0
-4 -21 730 0
-731 5 0
-731 20 0
-5 -20 731 0
-732 6 0
-732 19 0
-6 -19 732 0
-733 7 0
-733 18 0
-7 -18 733 0
-734 8 0
-734 17 0
-8 -17 734 0
-735 9 0
-735 16 0
-9 -16 735 0
-736 10 0
-736 15 0
-10 -15 736 0
-737 11 0
-737 14 0
-11 -14 737 0
-738 12 0
-738 13 0
-12 -13 738 0
-739 25 0
-739 59 0
-25 -59 739 0
-740 26 0
-740 58 0
-26 -58 740 0
-741 27 0
-741 57 0
-27 -57 741 0
-742 28 0
-742 56 0
-28 -56 742 0
-743 29 0
-743 55 0
-29 -55 743 0
-744 30 0
-744 54 0
-30 -54 744 0
-745 31 0
-745 53 0
-31 -53 745 0
-746 32 0
-746 52 0
-32 -52 746 0
-747 33 0
-747 51 0
-33 -51 747 0
-748 34 0
-748 50 0
-34 -50 748 0
-749 35 0
-749 49 0
-35 -49 749 0
-750 36 0
-750 48 0
-36 -48 750 0
-751 37 0
-751 47 0
-37 -47 751 0
-752 38 0
-752 46 0
-38 -46 752 0
-753 39 0
-753 45 0
-39 -45 753 0
-754 40 0
-754 44 0
-40 -44 754 0
-755 41 0
-755 43 0
-41 -43 755 0
-42 727 728 729 730 731 732 733 734 735 736 737 738 739 740 741 742 743 744 745 746 747 748 749 750 751 752 753 754 755 0
42 -727 728 729 730 731 732 733 734 735 736 737 738 739 740 741 742 743 744 745 746 747 748 749 750 751 752 753 754 755 0
42 -728 727 729 730 731 732 733 734 735 736 737 738 739 740 741 742 743 744 745 746 747 748 749 750 751 752 753 754 755 0
42 -729 727 728 730 731 732 733 734 735 736 737 738 739 740 741 742 743 744 745 746 747 748 749 750 751 752 753 754 755 0
42 -730 727 728 729 731 732 733 734 735 736 737 738 739 740 741 742 743 744 745 746 747 748 749 750 751 752 753 754 755 0
42 -731 727 728 729 730 732 733 734 735 736 737 738 739 740 741 742 743 744 745 746 747 748 749 750 751 752 753 754 755 0
42 -732 727 728 729 730 731 733 734 735 736 737 738 739 740 741 742 743 744 745 746 747 748 749 750 751 752 753 754 755 0
42 -733 727 728 729 730 731 732 734 735 736 737 738 739 740 741 742 743 744 745 746 747 748 749 750 751 752 753 754 755 0
42 -734 727 728 729 730 731 732 733 735 736 737 738 739 740 741 742 743 744 745 746 747 748 749 750 751 752 753 754 755 0
42 -735 727 728 729 730 731 732 733 734 736 737 738 739 740 741 742 743 744 745 746 747 748 749 750 751 752 753 754 755 0
42 -736 727 728 729 730 731 732 733 734 735 737 738 739 740 741 742 743 744 745 746 747 748 749 750 751 752 753 754 755 0
42 -737 727 728 729 730 731 732 733 734 735 736 738 739 740 741 742 743 744 745 746 747 748 749 750 751 752 753 754 755 0
42 -738 727 728 729 730 731 732 733 734 735 736 737 739 740 741 742 743 744 745 746 747 748 749 750 751 752 753 754 755 0
42 -739 727 728 729 730 731 732 733 734 735 736 737 738 740 741 742 743 744 745 746 747 748 749 750 751 752 753 754 755 0
42 -740 727 728 729 730 731 732 733 734 735 736 737 738 739 741 742 743 744 745 746 747 748 749 750 751 752 753 754 755 0
42 -741 727 728 729 730 731 732 733 734 735 736 737 738 739 740 742 743 744 745 746 747 748 749 750 751 752 753 754 755 0
42 -742 727 728 729 730 731 732 733 734 735 736 737 738 739 740 741 743 744 745 746 747 748 749 750 751 752 753 754 755 0
42 -743 727 728 729 730 731 732 733 734 735 736 737 738 739 740 741 742 744 745 746 747 748 749 750 751 752 753 754 755 0
42 -744 727 728 729 730 731 732 733 734 735 736 737 738 739 740 741 742 743 745 746 747 748 749 750 751 752 753 754 755 0
42 -745 727 728 729 730 731 732 733 734 735 736 737 738 739 740 741 742 743 744 746 747 748 749 750 751 752 753 754 755 0
42 -746 727 728 729 730 731 732 733 734 735 736 737 738 739 740 741 742 743 744 745 747 748 749 750 751 752 753 754 755 0
42 -747 727 728 729 730 731 732 733 734 735 736 737 738 739 740 741 742 743 744 745 746 748 749 750 751 752 753 754 755 0
42 -748 727 728 729 730 731 732 733 734 735 736 737 738 739 740 741 742 743 744 745 746 747 749 750 751 752 753 754 755 0
42 -749 727 728 729 730 731 732 733 734 735 736 737 738 739 740 741 742 743 744 745 746 747 748 750 751 752 753 754 755 0
42 -750 727 728 729 730 731 732 733 734 735 736 737 738 739 740 741 742 743 744 745 746 747 748 749 751 752 753 754 755 0
42 -751 727 728 729 730 731 732 733 734 735 736 737 738 739 740 741 742 743 744 745 746 747 748 749 750 752 753 754 755 0
42 -752 727 728 729 730 731 732 733 734 735 736 737 738 739 740 741 742 743 744 745 746 747 748 749 750 751 753 754 755 0
42 -753 727 728 729 730 731 732 733 734 735 736 737 738 739 740 741 742 743 744 745 746 747 748 749 750 751 752 754 755 0
42 -754 727 728 729 730 731 732 733 734 735 736 737 738 739 740 741 742 743 744 745 746 747 748 749 750 751 752 753 755 0
42 -755 727 728 729 730 731 732 733 734 735 736 737 738 739 740 741 742 743 744 745 746 747 748 749 750 751 752 753 754 0
-756 1 0
-756 25 0
-1 -25 756 0
-757 2 0
-757 24 0
-2 -24 757 0
-758 3 0
-758 23 0
-3 -23 758 0
-759 4 0
-759 22 0
-4 -22 759 0
-760 5 0
-760 21 0
-5 -21 760 0
-761 6 0
-761 20 0
-6 -20 761 0
-762 7 0
-762 19 0
-7 -19 762 0
-763 8 0
-763 18 0
-8 -18 763 0
-764 9 0
-764 17 0
-9 -17 764 0
-765 10 0
-765 16 0
-10 -16 765 0
-766 11 0
-766 15 0
-11 -15 766 0
-767 12 0
-767 14 0
-12 -14 767 0
-768 26 0
-768 59 0
-26 -59 768 0
-769 27 0
-769 58 0
-27 -58 769 0
-770 28 0
-770 57 0
-28 -57 770 0
-771 29 0
-771 56 0
-29 -56 771 0
-772 30 0
-772 55 0
-30 -55 772 0
-773 31 0
-773 54 0
-31 -54 773 0
-774 32 0
-774 53 0
-32 -53 774 0
-775 33 0
-775 52 0
-33 -52 775 0
-776 34 0
-776 51 0
-34 -51 776 0
-777 35 0
-777 50 0
-35 -50 777 0
-778 36 0
-778 49 0
-36 -49 778 0
-779 37 0
-779 48 0
-37 -48 779 0
-780 38 0
-780 47 0
-38 -47 780 0
-781 39 0
-781 46 0
-39 -46 781 0
-782 40 0
-782 45 0
-40 -45 782 0
-783 41 0
-783 44 0
-41 -44 783 0
-784 42 0
-784 43 0
-42 -43 784 0
-13 756 757 758 759 760 761 762 763 764 765 766 767 768 769 770 771 772 773 774 775 776 777 778 779 780 781 782 783 784 0
13 -756 757 758 759 760 761 762 763 764 765 766 767 768 769 770 771 772 773 774 775 776 777 778 779 780 781 782 783 784 0
13 -757 756 758 759 760 761 762 763 764 765 766 767 768 769 770 771 772 773 774 775 776 777 778 779 780 781 782 783 784 0
13 -758 756 757 759 760 761 762 763 764 765 766 767 768 769 770 771 772 773 774 775 776 777 778 779 780 781 782 783 784 0
13 -759 756 757 758 760 761 762 763 764 765 766 767 768 769 770 771 772 773 774 775 776 777 778 779 780 781 782 783 784 0
13 -760 756 757 758 759 761 762 763 764 765 766 767 768 769 770 771 772 773 774 775 776 777 778 779 780 781 782 783 784 0
13 -761 756 757 758 759 760 762 763 764 765 766 767 768 769 770 771 772 773 774 775 776 777 778 779 780 781 782 783 784 0
13 -762 756 757 758 759 760 761 763 764 765 766 767 768 769 770 771 772 773 774 775 776 777 778 779 780 781 782 783 784 0
13 -763 756 757 758 759 760 761 762 764 765 766 767 768 769 770 771 772 773 774 775 776 777 778 779 780 781 782 783 784 0
13 -764 756 757 758 759 760 761 762 763 765 766 767 768 769 770 771 772 773 774 775 776 777 778 779 780 781 782 783 784 0
13 -765 756 757 758 759 760 761 762 763 764 766 767 768 769 770 771 772 773 774 775 776 777 778 779 780 781 782 783 784 0
13 -766 756 757 758 759 760 761 762 763 764 765 767 768 769 770 771 772 773 774 775 776 777 778 779 780 781 782 783 784 0
13 -767 756 757 758 759 760 761 762 763 764 765 766 768 769 770 771 772 773 774 775 776 777 778 779 780 781 782 783 784 0
13 -768 756 757 758 759 760 761 762 763 764 765 766 767 769 770 771 772 773 774 775 776 777 778 779 780 781 782 783 784 0
13 -769 756 757 758 759 760 761 762 763 764 765 766 767 768 770 771 772 773 774 775 776 777 778 779 780 781 782 783 784 0
13 -770 756 757 758 759 760 761 762 763 764 765 766 767 768 769 771 772 773 774 775 776 777 778 779 780 781 782 783 784 0
13 -771 756 757 758 759 760 761 762 763 764 765 766 767 768 769 770 772 773 774 775 776 777 778 779 780 781 782 783 784 0
13 -772 756 757 758 759 760 761 762 763 764 765 766 767 768 769 770 771 773 774 775 776 777 778 779 780 781 782 783 784 0
13 -773 756 757 758 759 760 761 762 763 764 765 766 767 768 769 770 771 772 774 775 776 777 778 779 780 781 782 783 784 0
13 -774 756 757 758 759 760 761 762 763 764 765 766 767 768 769 770 771 772 773 775 776 777 778 779 780 781 782 783 784 0
13 -775 756 757 758 759 760 761 762 763 764 765 766 767 768 769 770 771 772 773 774 776 777 778 779 780 781 782 783 784 0
13 -776 756 757 758 759 760 761 762 763 764 765 766 767 768 769 770 771 772 773 774 775 777 778 779 780 781 782 783 784 0
13 -777 756 757 758 759 760 761 762 763 764 765 766 767 768 769 770 771 772 773 774 775 776 778 779 780 781 782 783 784 0
13 -778 756 757 758 759 760 761 762 763 764 765 766 767 768 769 770 771 772 773 774 775 776 777 779 780 781 782 783 784 0
13 -779 756 757 758 759 760 761 762 763 764 765 766 767 768 769 770 771 772 773 774 775 776 777 778 780 781 782 783 784 0
13 -780 756 757 758 759 760 761 762 763 764 765 766 767 768 769 770 771 772 773 774 775 776 777 778 779 781 782 783 784 0
13 -781 756 757 758 759 760 761 762 763 764 765 766 767 768 769 770 771 772 773 774 775 776 777 778 779 780 782 783 784 0
13 -782 756 757 758 759 760 761 762 763 764 765 766 767 768 769 770 771 772 773 774 775 776 777 778 779 780 781 783 784 0
13 -783 756 757 758 759 760 761 762 763 764 765 766 767 768 769 770 771 772 773 774 775 776 777 778 779 780 781 782 784 0
13 -784 756 757 758 759 760 761 762 763 764 765 766 767 768 769 770 771 772 773 774 775 776 777 778 779 780 781 782 783 0
-785 1 0
-785 26 0
-1 -26 785 0
-786 2 0
-786 25 0
-2 -25 786 0
-787 3 0
-787 24 0
-3 -24 787 0
-788 4 0
-788 23 0
-4 -23 788 0
-789 5 0
-789 22 0
-5 -22 789 0
-790 6 0
-790 21 0
-6 -21 790 0
-791 7 0
-791 20 0
-7 -20 791 0
-792 8 0
-792 19 0
-8 -19 792 0
-793 9 0
-793 18 0
-9 -18 793 0
-794 10 0
-794 17 0
-10 -17 794 0
-795 11 0
-795 16 0
-11 -16 795 0
-796 12 0
-796 15 0
-12 -15 796 0
-797 13 0
-797 14 0
-13 -14 797 0
-798 27 0
-798 59 0
-27 -59 798 0
-799 28 0
-799 58 0
-28 -58 799 0
-800 29 0
-800 57 0
-29 -57 800 0
-801 30 0
-801 56 0
-30 -56 801 0
-802 31 0
-802 55 0
-31 -55 802 0
-803 32 0
-803 54 0
-32 -54 803 0
-804 33 0
-804 53 0
-33 -53 804 0
-805 34 0
-805 52 0
-34 -52 805 0
-806 35 0
-806 51 0
-35 -51 806 0
-807 36 0
-807 50 0
-36 -50 807 0
-808 37 0
-808 49 0
-37 -49 808 0
-809 38 0
-809 48 0
-38 -48 809 0
-810 39 0
-810 47 0
-39 -47 810 0
-811 40 0
-811 46 0
-40 -46 811 0
-812 41 0
-812 45 0
-41 -45 812 0
-813 42 0
-813 44 0
-42 -44 813 0
-43 785 786 787 788 789 790 791 792 793 794 795 796 797 798 799 800 801 802 803 804 805 806 807 808 809 810 811 812 813 0
43 -785 786 787 788 789 790 791 792 793 794 795 796 797 798 799 800 801 802 803 804 805 806 807 808 809 810 811 812 813 0
43 -786 785 787 788 789 790 791 792 793 794 795 796 797 798 799 800 801 802 803 804 805 806 807 808 809 810 811 812 813 0
43 -787 785 786 788 789 790 791 792 793 794 795 796 797 798 799 800 801 802 803 804 805 806 807 808 809 810 811 812 813 0
43 -788 785 786 787 789 790 791 792 793 794 795 796 797 798 799 800 801 802 803 804 805 806 807 808 809 810 811 812 813 0
43 -789 785 786 787 788 790 791 792 793 794 795 796 797 798 799 800 801 802 803 804 805 806 807 808 809 810 811 812 813 0
43 -790 785 786 787 788 789 791 792 793 794 795 796 797 798 799 800 801 802 803 804 805 806 807 808 809 810 811 812 813 0
43 -791 785 786 787 788 789 790 792 793 794 795 796 797 798 799 800 801 802 803 804 805 806 807 808 809 810 811 812 813 0
43 -792 785 786 787 788 789 790 791 793 794 795 796 797 798 799 800 801 802 803 804 805 806 807 808 809 810 811 812 813 0
43 -793 785 786 787 788 789 790 791 792 794 795 796 797 798 799 800 801 802 803 804 805 806 807 808 809 810 811 812 813 0
43 -794 785 786 787 788 789 790 791 792 793 795 796 797 798 799 800 801 802 803 804 805 806 807 808 809 810 811 812 813 0
43 -795 785 786 787 788 789 790 791 792 793 794 796 797 798 799 800 801 802 803 804 805 806 807 808 809 810 811 812 813 0
43 -796 785 786 787 788 789 790 791 792 793 794 795 797 798 799 800 801 802 803 804 805 806 807 808 809 810 811 812 813 0
43 -797 785 786 787 788 789 790 791 792 793 794 795 796 798 799 800 801 802 803 804 805 806 807 808 809 810 811 812 813 0
43 -798 785 786 787 788 789 790 791 792 793 794 795 796 797 799 800 801 802 803 804 805 806 807 808 809 810 811 812 813 0
43 -799 785 786 787 788 789 790 791 792 793 794 795 796 797 798 800 801 802 803 804 805 806 807 808 809 810 811 812 813 0
43 -800 785 786 787 788 789 790 791 792 793 794 795 796 797 798 799 801 802 803 804 805 806 807 808 809 810 811 812 813 0
43 -801 785 786 787 788 789 790 791 792 793 794 795 796 797 798 799 800 802 803 804 805 806 807 808 809 810 811 812 813 0
43 -802 785 786 787 788 789 790 791 792 793 794 795 796 797 798 799 800 801 803 804 805 806 807 808 809 810 811 812 813 0
43 -803 785 786 787 788 789 790 791 792 793 794 795 796 797 798 799 800 801 802 804 805 806 807 808 809 810 811 812 813 0
43 -804 785 786 787 788 789 790 791 792 793 794 795 796 797 798 799 800 801 802 803 805 806 807 808 809 810 811 812 813 0
43 -805 785 786 787 788 789 790 791 792 793 794 795 796 797 798 799 800 801 802 803 804 806 807 808 809 810 811 812 813 0
43 -806 785 786 787 788 789 790 791 792 793 794 795 796 797 798 799 800 801 802 803 804 805 807 808 809 810 811 812 813 0
43 -807 785 786 787 788 789 790 791 792 793 794 795 796 797 798 799 800 801 802 803 804 805 806 808 809 810 811 812 813 0
43 -808 785 786 787 788 789 790 791 792 793 794 795 796 797 798 799 800 801 802 803 804 805 806 807 809 810 811 812 813 0
43 -809 785 786 787 788 789 790 791 792 793 794 795 796 797 798 799 800 801 802 803 804 805 806 807 808 810 811 812 813 0
43 -810 785 786 787 788 789 790 791 792 793 794 795 796 797 798 799 800 801 802 803 804 805 806 807 808 809 811 812 813 0
43 -811 785 786 787 788 789 790 791 792 793 794 795 796 797 798 799 800 801 802 803 804 805 806 807 808 809 810 812 813 0
43 -812 785 786 787 788 789 790 791 792 793 794 795 796 797 798 799 800 801 802 803 804 805 806 807 808 809 810 811 813 0
43 -813 785 786 787 788 789 790 791 792 793 794 795 796 797 798 799 800 801 802 803 804 805 806 807 808 809 810 811 812 0
-814 1 0
-814 27 0
-1 -27 814 0
-815 2 0
-815 26 0
-2 -26 815 0
-816 3 0
-816 25 0
-3 -25 816 0
-817 4 0
-817 24 0
-4 -24 817 0
-818 5 0
-818 23 0
-5 -23 818 0
-819 6 0
-819 22 0
-6 -22 819 0
-820 7 0
-820 21 0
-7 -21 820 0
-821 8 0
-821 20 0
-8 -20 821 0
-822 9 0
-822 19 0
-9 -19 822 0
-823 10 0
-823 18 0
-10 -18 823 0
-824 11 0
-824 17 0
-11 -17 824 0
-825 12 0
-825 16 0
-12 -16 825 0
-826 13 0
-826 15 0
-13 -15 826 0
-827 28 0
-827 59 0
-28 -59 827 0
-828 29 0
-828 58 0
-29 -58 828 0
-829 30 0
-829 57 0
-30 -57 829 0
-830 31 0
-830 56 0
-31 -56 830 0
-831 32 0
-831 55 0
-32 -55 831 0
-832 33 0
-832 54 0
-33 -54 832 0
-833 34 0
-833 53 0
-34 -53 833 0
-834 35 0
-834 52 0
-35 -52 834 0
-835 36 0
-835 51 0
-36 -51 835 0
-836 37 0
-836 50 0
-37 -50 836 0
-837 38 0
-837 49 0
-38 -49 837 0
-838 39 0
-838 48 0
-39 -48 838 0
-839 40 0
-839 47 0
-40 -47 839 0
-840 41 0
-840 46 0
-41 -46 840 0
-841 42 0
-841 45 0
-42 -45 841 0
-842 43 0
-842 44 0
-43 -44 842 0
-14 814 815 816 817 818 819 820 821 822 823 824 825 826 827 828 829 830 831 832 833 834 835 836 837 838 839 840 841 842 0
14 -814 815 816 817 818 819 820 821 822 823 824 825 826 827 828 829 830 831 832 833 834 835 836 837 838 839 840 841 842 0
14 -815 814 816 817 818 819 820 821 822 823 824 825 826 827 828 829 830 831 832 833 834 835 836 837 838 839 840 841 842 0
14 -816 814 815 817 818 819 820 821 822 823 824 825 826 827 828 829 830 831 832 833 834 835 836 837 838 839 840 841 842 0
14 -817 814 815 816 818 819 820 821 822 823 824 825 826 827 828 829 830 831 832 833 834 835 836 837 838 839 840 841 842 0
14 -818 814 815 816 817 819 820 821 822 823 824 825 826 827 828 829 830 831 832 833 834 835 836 837 838 839 840 841 842 0
14 -819 814 815 816 817 818 820 821 822 823 824 825 826 827 828 829 830 831 832 833 834 835 836 837 838 839 840 841 842 0
14 -820 814 815 816 817 818 819 821 822 823 824 825 826 827 828 829 830 831 832 833 834 835 836 837 838 839 840 841 842 0
14 -821 814 815 816 817 818 819 820 822 823 824 825 826 827 828 829 830 831 832 833 834 835 836 837 838 839 840 841 842 0
14 -822 814 815 816 817 818 819 820 821 823 824 825 826 827 828 829 830 831 832 833 834 835 836 837 838 839 840 841 842 0
14 -823 814 815 816 817 818 819 820 821 822 824 825 826 827 828 829 830 831 832 833 834 835 836 837 838 839 840 841 842 0
14 -824 814 815 816 817 818 819 820 821 822 823 825 826 827 828 829 830 831 832 833 834 835 836 837 838 839 840 841 842 0
14 -825 814 815 816 817 818 819 820 821 822 823 824 826 827 828 829 830 831 832 833 834 835 836 837 838 839 840 841 842 0
14 -826 814 815 816 817 818 819 820 821 822 823 824 825 827 828 829 830 831 832 833 834 835 836 837 838 839 840 841 842 0
14 -827 814 815 816 817 818 819 820 821 822 823 824 825 826 828 829 830 831 832 833 834 835 836 837 838 839 840 841 842 0
14 -828 814 815 816 817 818 819 820 821 822 823 824 825 826 827 829 830 831 832 833 834 835 836 837 838 839 840 841 842 0
14 -829 814 815 816 817 818 819 820 821 822 823 824 825 826 827 828 830 831 832 833 834 835 836 837 838 839 840 841 842 0
14 -830 814 815 816 817 818 819 820 821 822 823 824 825 826 827 828 829 831 832 833 834 835 836 837 838 839 840 841 842 0
14 -831 814 815 816 817 818 819 820 821 822 823 824 825 826 827 828 829 830 832 833 834 835 836 837 838 839 840 841 842 0
14 -832 814 815 816 817 818 819 820 821 822 823 824 825 826 827 828 829 830 831 833 834 835 836 837 838 839 840 841 842 0
14 -833 814 815 816 817 818 819 820 821 822 823 824 825 826 827 828 829 830 831 832 834 835 836 837 838 839 840 841 842 0
14 -834 814 815 816 817 818 819 820 821 822 823 824 825 826 827 828 829 830 831 832 833 835 836 837 838 839 840 841 842 0
14 -835 814 815 816 817 818 819 820 821 822 823 824 825 826 827 828 829 830 831 832 833 834 836 837 838 839 840 841 842 0
14 -836 814 815 816 817 818 819 820 821 822 823 824 825 826 827 828 829 830 831 832 833 834 835 837 838 839 840 841 842 0
14 -837 814 815 816 817 818 819 820 821 822 823 824 825 826 827 828 829 830 831 832 833 834 835 836 838 839 840 841 842 0
14 -838 814 815 816 817 818 819 820 821 822 823 824 825 826 827 828 829 830 831 832 833 834 835 836 837 839 840 841 842 0
14 -839 814 815 816 817 818 819 820 821 822 823 824 825 826 827 828 829 830 831 832 833 834 835 836 837 838 840 841 842 0
14 -840 814 815 816 817 818 819 820 821 822 823 824 825 826 827 828 829 830 831 832 833 834 835 836 837 838 839 841 842 0
14 -841 814 815 816 817 818 819 820 821 822 823 824 825 826 827 828 829 830 831 832 833 834 835 836 837 838 839 840 842 0
14 -842 814 815 816 817 818 819 820 821 822 823 824 825 826 827 828 829 830 831 832 833 834 835 836 837 838 839 840 841 0
-843 1 0
-843 28 0
-1 -28 843 0
-844 2 0
-844 27 0
-2 -27 844 0
-845 3 0
-845 26 0
-3 -26 845 0
-846 4 0
-846 25 0
-4 -25 846 0
-847 5 0
-847 24 0
-5 -24 847 0
-848 6 0
-848 23 0
-6 -23 848 0
-849 7 0
-849 22 0
-7 -22 849 0
-850 8 0
-850 21 0
-8 -21 850 0
-851 9 0
-851 20 0
-9 -20 851 0
-852 10 0
-852 19 0
-10 -19 852 0
-853 11 0
-853 18 0
-11 -18 853 0
-854 12 0
-854 17 0
-12 -17 854 0
-855 13 0
-855 16 0
-13 -16 855 0
-856 14 0
-856 15 0
-14 -15 856 0
-857 29 0
-857 59 0
-29 -59 857 0
-858 30 0
-858 58 0
-30 -58 858 0
-859 31 0
-859 57 0
-31 -57 859 0
-860 32 0
-860 56 0
-32 -56 860 0
-861 33 0
-861 55 0
-33 -55 861 0
-862 34 0
-862 54 0
-34 -54 862 0
-863 35 0
-863 53 0
-35 -53 863 0
-864 36 0
-864 52 0
-36 -52 864 0
-865 37 0
-865 51 0
-37 -51 865 0
-866 38 0
-866 50 0
-38 -50 866 0
-867 39 0
-867 49 0
-39 -49 867 0
-868 40 0
-868 48 0
-40 -48 868 0
-869 41 0
-869 47 0
-41 -47 869 0
-870 42 0
-870 46 0
-42 -46 870 0
-871 43 0
-871 45 0
-43 -45 871 0
-44 843 844 845 846 847 848 849 850 851 852 853 854 855 856 857 858 859 860 861 862 863 864 865 866 867 868 869 870 871 0
44 -843 844 845 846 847 848 849 850 851 852 853 854 855 856 857 858 859 860 861 862 863 864 865 866 867 868 869 870 871 0
44 -844 843 845 846 847 848 849 850 851 852 853 854 855 856 857 858 859 860 861 862 863 864 865 866 867 868 869 870 871 0
44 -845 843 844 846 847 848 849 850 851 852 853 854 855 856 857 858 859 860 861 862 863 864 865 866 867 868 869 870 871 0
44 -846 843 844 845 847 848 849 850 851 852 853 854 855 856 857 858 859 860 861 862 863 864 865 866 867 868 869 870 871 0
44 -847 843 844 845 846 848 849 850 851 852 853 854 855 856 857 858 859 860 861 862 863 864 865 866 867 868 869 870 871 0
44 -848 843 844 845 846 847 849 850 851 852 853 854 855 856 857 858 859 860 861 862 863 864 865 866 867 868 869 870 871 0
44 -849 843 844 845 846 847 848 850 851 852 853 854 855 856 857 858 859 860 861 862 863 864 865 866 867 868 869 870 871 0
44 -850 843 844 845 846 847 848 849 851 852 853 854 855 856 857 858 859 860 861 862 863 864 865 866 867 868 869 870 871 0
44 -851 843 844 845 846 847 848 849 850 852 853 854 855 856 857 858 859 860 861 862 863 864 865 866 867 868 869 870 871 0
44 -852 843 844 845 846 847 848 849 850 851 853 854 855 856 857 858 859 860 861 862 863 864 865 866 867 868 869 870 871 0
44 -853 843 844 845 846 847 848 849 850 851 852 854 855 856 857 858 859 860 861 862 863 864 865 866 867 868 869 870 871 0
44 -854 843 844 845 846 847 848 849 850 851 852 853 855 856 857 858 859 860 861 862 863 864 865 866 867 868 869 870 871 0
44 -855 843 844 845 846 847 848 849 850 851 852 853 854 856 857 858 859 860 861 862 863 864 865 866 867 868 869 870 871 0
44 -856 843 844 845 846 847 848 849 850 851 852 853 854 855 857 858 859 860 861 862 863 864 865 866 867 868 869 870 871 0
44 -857 843 844 845 846 847 848 849 850 851 852 853 854 855 856 858 859 860 861 862 863 864 865 866 867 868 869 870 871 0
44 -858 843 844 845 846 847 848 849 850 851 852 853 854 855 856 857 859 860 861 862 863 864 865 866 867 868 869 870 871 0
44 -859 843 844 845 846 847 848 849 850 851 852 853 854 855 856 857 858 860 861 862 863 864 865 866 867 868 869 870 871 0
44 -860 843 844 845 846 847 848 849 850 851 852 853 854 855 856 857 858 859 861 862 863 864 865 866 867 868 869 870 871 0
44 -861 843 844 845 846 847 848 849 850 851 852 853 854 855 856 857 858 859 860 862 863 864 865 866 867 868 869 870 871 0
44 -862 843 844 845 846 847 848 849 850 851 852 853 854 855 856 857 858 859 860 861 863 864 865 866 867 868 869 870 871 0
44 -863 843 844 845 846 847 848 849 850 851 852 853 854 855 856 857 858 859 860 861 862 864 865 866 867 868 869 870 871 0
44 -864 843 844 845 846 847 848 849 850 851 852 853 854 855 856 857 858 859 860 861 862 863 865 866 867 868 869 870 871 0
44 -865 843 844 845 846 847 848 849 850 851 852 853 854 855 856 857 858 859 860 861 862 863 864 866 867 868 869 870 871 0
44 -866 843 844 845 846 847 848 849 850 851 852 853 854 855 856 857 858 859 860 861 862 863 864 865 867 868 869 870 871 0
44 -867 843 844 845 846 847 848 849 850 851 852 853 854 855 856 857 858 859 860 861 862 863 864 865 866 868 869 870 871 0
44 -868 843 844 845 846 847 848 849 850 851 852 853 854 855 856 857 858 859 860 861 862 863 864 865 866 867 869 870 871 0
44 -869 843 844 845 846 847 848 849 850 851 852 853 854 855 856 857 858 859 860 861 862 863 864 865 866 867 868 870 871 0
44 -870 843 844 845 846 847 848 849 850 851 852 853 854 855 856 857 858 859 860 861 862 863 864 865 866 867 868 869 871 0
44 -871 843 844 845 846 847 848 849 850 851 852 853 854 855 856 857 858 859 860 861 862 863 864 865 866 867 868 869 870 0
-872 1 0
-872 29 0
-1 -29 872 0
-873 2 0
-873 28 0
-2 -28 873 0
-874 3 0
-874 27 0
-3 -27 874 0
-875 4 0
-875 26 0
-4 -26 875 0
-876 5 0
-876 25 0
-5 -25 876 0
-877 6 0
-877 24 0
-6 -24 877 0
-878 7 0
-878 23 0
-7 -23 878 0
-879 8 0
-879 22 0
-8 -22 879 0
-880 9 0
-880 21 0
-9 -21 880 0
-881 10 0
-881 20 0
-10 -20 881 0
-882 11 0
-882 19 0
-11 -19 882 0
-883 12 0
-883 18 0
-12 -18 883 0
-884 13 0
-884 17 0
-13 -17 884 0
-885 14 0
-885 16 0
-14 -16 885 0
-886 30 0
-886 59 0
-30 -59 886 0
-887 31 0
-887 58 0
-31 -58 887 0
-888 32 0
-888 57 0
-32 -57 888 0
-889 33 0
-889 56 0
-33 -56 889 0
-890 34 0
-890 55 0
-34 -55 890 0
-891 35 0
-891 54 0
-35 -54 891 0
-892 36 0
-892 53 0
-36 -53 892 0
-893 37 0
-893 52 0
-37 -52 893 0
-894 38 0
-894 51 0
-38 -51 894 0
-895 39 0
-895 50 0
-39 -50 895 0
-896 40 0
-896 49 0
-40 -49 896 0
-897 41 0
-897 48 0
-41 -48 897 0
-898 42 0
-898 47 0
-42 -47 898 0
-899 43 0
-899 46 0
-43 -46 899 0
-900 44 0
-900 45 0
-44 -45 900 0
-15 872 873 874 875 876 877 878 879 880 881 882 883 884 885 886 887 888 889 890 891 892 893 894 895 896 897 898 899 900 0
15 -872 873 874 875 876 877 878 879 880 881 882 883 884 885 886 887 888 889 890 891 892 893 894 895 896 897 898 899 900 0
15 -873 872 874 875 876 877 878 879 880 881 882 883 884 885 886 887 888 889 890 891 892 893 894 895 896 897 898 899 900 0
15 -874 872 873 875 876 877 878 879 880 881 882 883 884 885 886 887 888 889 890 891 892 893 894 895 896 897 898 899 900 0
15 -875 872 873 874 876 877 878 879 880 881 882 883 884 885 886 887 888 889 890 891 892 893 894 895 896 897 898 899 900 0
15 -876 872 873 874 875 877 878 879 880 881 882 883 884 885 886 887 888 889 890 891 892 893 894 895 896 897 898 899 900 0
15 -877 872 873 874 875 876 878 879 880 881 882 883 884 885 886 887 888 889 890 891 892 893 894 895 896 897 898 899 900 0
15 -878 872 873 874 875 876 877 879 880 881 882 883 884 885 886 887 888 889 890 891 892 893 894 895 896 897 898 899 900 0
15 -879 872 873 874 875 876 877 878 880 881 882 883 884 885 886 887 888 889 890 891 892 893 894 895 896 897 898 899 900 0
15 -880 872 873 874 875 876 877 878 879 881 882 883 884 885 886 887 888 889 890 891 892 893 894 895 896 897 898 899 900 0
15 -881 872 873 874 875 876 877 878 879 880 882 883 884 885 886 887 888 889 890 891 892 893 894 895 896 897 898 899 900 0
15 -882 872 873 874 875 876 877 878 879 880 881 883 884 885 886 887 888 889 890 891 892 893 894 895 896 897 898 899 900 0
15 -883 872 873 874 875 876 877 878 879 880 881 882 884 885 886 887 888 889 890 891 892 893 894 895 896 897 898 899 900 0
15 -884 872 873 874 875 876 877 878 879 880 881 882 883 885 886 887 888 889 890 891 892 893 894 895 896 897 898 899 900 0
15 -885 872 873 874 875 876 877 878 879 880 881 882 883 884 886 887 888 889 890 891 892 893 894 895 896 897 898 899 900 0
15 -886 872 873 874 875 876 877 878 879 880 881 882 883 884 885 887 888 889 890 891 892 893 894 895 896 897 898 899 900 0
15 -887 872 873 874 875 876 877 878 879 880 881 882 883 884 885 886 888 889 890 891 892 893 894 895 896 897 898 899 900 0
15 -888 872 873 874 875 876 877 878 879 880 881 882 883 884 885 886 887 889 890 891 892 893 894 895 896 897 898 899 900 0
15 -889 872 873 874 875 876 877 878 879 880 881 882 883 884 885 886 887 888 890 891 892 893 894 895 896 897 898 899 900 0
15 -890 872 873 874 875 876 877 878 879 880 881 882 883 884 885 886 887 888 889 891 892 893 894 895 896 897 898 899 900 0
15 -891 872 873 874 875 876 877 878 879 880 881 882 883 884 885 886 887 888 889 890 892 893 894 895 896 897 898 899 900 0
15 -892 872 873 874 875 876 877 878 879 880 881 882 883 884 885 886 887 888 889 890 891 893 894 895 896 897 898 899 900 0
15 -893 872 873 874 875 876 877 878 879 880 881 882 883 884 885 886 887 888 889 890 891 892 894 895 896 897 898 899 900 0
15 -894 872 873 874 875 876 877 878 879 880 881 882 883 884 885 886 887 888 889 890 891 892 893 895 896 897 898 899 900 0
15 -895 872 873 874 875 876 877 878 879 880 881 882 883 884 885 886 887 888 889 890 891 892 893 894 896 897 898 899 900 0
15 -896 872 873 874 875 876 877 878 879 880 881 882 883 884 885 886 887 888 889 890 891 892 893 894 895 897 898 899 900 0
15 -897 872 873 874 875 876 877 878 879 880 881 882 883 884 885 886 887 888 889 890 891 892 893 894 895 896 898 899 900 0
15 -898 872 873 874 875 876 877 878 879 880 881 882 883 884 885 886 887 888 889 890 891 892 893 894 895 896 897 899 900 0
15 -899 872 873 874 875 876 877 878 879 880 881 882 883 884 885 886 887 888 889 890 891 892 893 894 895 896 897 898 900 0
15 -900 872 873 874 875 876 877 878 879 880 881 882 883 884 885 886 887 888 889 890 891 892 893 894 895 896 897 898 899 0
-901 1 0
-901 30 0
-1 -30 901 0
-902 2 0
-902 29 0
-2 -29 902 0
-903 3 0
-903 28 0
-3 -28 903 0
-904 4 0
-904 27 0
-4 -27 904 0
-905 5 0
-905 26 0
-5 -26 905 0
-906 6 0
-906 25 0
-6 -25 906 0
-907 7 0
-907 24 0
-7 -24 907 0
-908 8 0
-908 23 0
-8 -23 908 0
-909 9 0
-909 22 0
-9 -22 909 0
-910 10 0
-910 21 0
-10 -21 910 0
-911 11 0
-911 20 0
-11 -20 911 0
-912 12 0
-912 19 0
-12 -19 912 0
-913 13 0
-913 18 0
-13 -18 913 0
-914 14 0
-914 17 0
-14 -17 914 0
-915 15 0
-915 16 0
-15 -16 915 0
-916 31 0
-916 59 0
-31 -59 916 0
-917 32 0
-917 58 0
-32 -58 917 0
-918 33 0
-918 57 0
-33 -57 918 0
-919 34 0
-919 56 0
-34 -56 919 0
-920 35 0
-920 55 0
-35 -55 920 0
-921 36 0
-921 54 0
-36 -54 921 0
-922 37 0
-922 53 0
-37 -53 922 0
-923 38 0
-923 52 0
-38 -52 923 0
-924 39 0
-924 51 0
-39 -51 924 0
-925 40 0
-925 50 0
-40 -50 925 0
-926 41 0
-926 49 0
-41 -49 926 0
-927 42 0
-927 48 0
-42 -48 927 0
-928 43 0
-928 47 0
-43 -47 928 0
-929 44 0
-929 46 0
-44 -46 929 0
-45 901 902 903 904 905 906 907 908 909 910 911 912 913 914 915 916 917 918 919 920 921 922 923 924 925 926 927 928 929 0
45 -901 902 903 904 905 906 907 908 909 910 911 912 913 914 915 916 917 918 919 920 921 922 923 924 925 926 927 928 929 0
45 -902 901 903 904 905 906 907 908 909 910 911 912 913 914 915 916 917 918 919 920 921 922 923 924 925 926 927 928 929 0
45 -903 901 902 904 905 906 907 908 909 910 911 912 913 914 915 916 917 918 919 920 921 922 923 924 925 926 927 928 929 0
45 -904 901 902 903 905 906 907 908 909 910 911 912 913 914 915 916 917 918 919 920 921 922 923 924 925 926 927 928 929 0
45 -905 901 902 903 904 906 907 908 909 910 911 912 913 914 915 916 917 918 919 920 921 922 923 924 925 926 927 928 929 0
45 -906 901 902 903 904 905 907 908 909 910 911 912 913 914 915 916 917 918 919 920 921 922 923 924 925 926 927 928 929 0
45 -907 901 902 903 904 905 906 908 909 910 911 912 913 914 915 916 917 918 919 920 921 922 923 924 925 926 927 928 929 0
45 -908 901 902 903 904 905 906 907 909 910 911 912 913 914 915 916 917 918 919 920 921 922 923 924 925 926 927 928 929 0
45 -909 901 902 903 904 905 906 907 908 910 911 912 913 914 915 916 917 918 919 920 921 922 923 924 925 926 927 928 929 0
45 -910 901 902 903 904 905 906 907 908 909 911 912 913 914 915 916 917 918 919 920 921 922 923 924 925 926 927 928 929 0
45 -911 901 902 903 904 905 906 907 908 909 910 912 913 914 915 916 917 918 919 920 921 922 923 924 925 926 927 928 929 0
45 -912 901 902 903 904 905 906 907 908 909 910 911 913 914 915 916 917 918 919 920 921 922 923 924 925 926 927 928 929 0
45 -913 901 902 903 904 905 906 907 908 909 910 911 912 914 915 916 917 918 919 920 921 922 923 924 925 926 927 928 929 0
45 -914 901 902 903 904 905 906 907 908 909 910 911 912 913 915 916 917 918 919 920 921 922 923 924 925 926 927 928 929 0
45 -915 901 902 903 904 905 906 907 908 909 910 911 912 913 914 916 917 918 919 920 921 922 923 924 925 926 927 928 929 0
45 -916 901 902 903 904 905 906 907 908 909 910 911 912 913 914 915 917 918 919 920 921 922 923 924 925 926 927 928 929 0
45 -917 901 902 903 904 905 906 907 908 909 910 911 912 913 914 915 916 918 919 920 921 922 923 924 925 926 927 928 929 0
45 -918 901 902 903 904 905 906 907 908 909 910 911 912 913 914 915 916 917 919 920 921 922 923 924 925 926 927 928 929 0
45 -919 901 902 903 904 905 906 907 908 909 910 911 912 913 914 915 916 917 918 920 921 922 923 924 925 926 927 928 929 0
45 -920 901 902 903 904 905 906 907 908 909 910 911 912 913 914 915 916 917 918 919 921 922 923 924 925 926 927 928 929 0
45 -921 901 902 903 904 905 906 907 908 909 910 911 912 913 914 915 916 917 918 919 920 922 923 924 925 926 927 928 929 0
45 -922 901 902 903 904 905 906 907 908 909 910 911 912 913 914 915 916 917 918 919 920 921 923 924 925 926 927 928 929 0
45 -923 901 902 903 904 905 906 907 908 909 910 911 912 913 914 915 916 917 918 919 920 921 922 924 925 926 927 928 929 0
45 -924 901 902 903 904 905 906 907 908 909 910 911 912 913 914 915 916 917 918 919 920 921 922 923 925 926 927 928 929 0
45 -925 901 902 903 904 905 906 907 908 909 910 911 912 913 914 915 916 917 918 919 920 921 922 923 924 926 927 928 929 0
45 -926 901 902 903 904 905 906 907 908 909 910 911 912 913 914 915 916 917 918 919 920 921 922 923 924 925 927 928 929 0
45 -927 901 902 903 904 905 906 907 908 909 910 911 912 913 914 915 916 917 918 919 920 921 922 923 924 925 926 928 929 0
45 -928 901 902 903 904 905 906 907 908 909 910 911 912 913 914 915 916 917 918 919 920 921 922 923 924 925 926 927 929 0
45 -929 901 902 903 904 905 906 907 908 909 910 911 912 913 914 915 916 917 918 919 920 921 922 923 924 925 926 927 928 0
-930 1 0
-930 31 0
-1 -31 930 0
-931 2 0
-931 30 0
-2 -30 931 0
-932 3 0
-932 29 0
-3 -29 932 0
-933 4 0
-933 28 0
-4 -28 933 0
-934 5 0
-934 27 0
-5 -27 934 0
-935 6 0
-935 26 0
-6 -26 935 0
-936 7 0
-936 25 0
-7 -25 936 0
-937 8 0
-937 24 0
-8 -24 937 0
-938 9 0
-938 23 0
-9 -23 938 0
-939 10 0
-939 22 0
-10 -22 939 0
-940 11 0
-940 21 0
-11 -21 940 0
-941 12 0
-941 20 0
-12 -20 941 0
-942 13 0
-942 19 0
-13 -19 942 0
-943 14 0
-943 18 0
-14 -18 943 0
-944 15 0
-944 17 0
-15 -17 944 0
-945 32 0
-945 59 0
-32 -59 945 0
-946 33 0
-946 58 0
-33 -58 946 0
-947 34 0
-947 57 0
-34 -57 947 0
-948 35 0
-948 56 0
-35 -56 948 0
-949 36 0
-949 55 0
-36 -55 949 0
-950 37 0
-950 54 0
-37 -54 950 0
-951 38 0
-951 53 0
-38 -53 951 0
-952 39 0
-952 52 0
-39 -52 952 0
-953 40 0
-953 51 0
-40 -51 953 0
-954 41 0
-954 50 0
-41 -50 954 0
-955 42 0
-955 49 0
-42 -49 955 0
-956 43 0
-956 48 0
-43 -48 956 0
-957 44 0
-957 47 0
-44 -47 957 0
-958 45 0
-958 46 0
-45 -46 958 0
-16 930 931 932 933 934 935 936 937 938 939 940 941 942 943 944 945 946 947 948 949 950 951 952 953 954 955 956 957 958 0
16 -930 931 932 933 934 935 936 937 938 939 940 941 942 943 944 945 946 947 948 949 950 951 952 953 954 955 956 957 958 0
16 -931 930 932 933 934 935 936 937 938 939 940 941 942 943 944 945 946 947 948 949 950 951 952 953 954 955 956 957 958 0
16 -932 930 931 933 934 935 936 937 938 939 940 941 942 943 944 945 946 947 948 949 950 951 952 953 954 955 956 957 958 0
16 -933 930 931 932 934 935 936 937 938 939 940 941 942 943 944 945 946 947 948 949 950 951 952 953 954 955 956 957 958 0
16 -934 930 931 932 933 935 936 937 938 939 940 941 942 943 944 945 946 947 948 949 950 951 952 953 954 955 956 957 958 0
16 -935 930 931 932 933 934 936 937 938 939 940 941 942 943 944 945 946 947 948 949 950 951 952 953 954 955 956 957 958 0
16 -936 930 931 932 933 934 935 937 938 939 940 941 942 943 944 945 946 947 948 949 950 951 952 953 954 955 956 957 958 0
16 -937 930 931 932 933 934 935 936 938 939 940 941 942 943 944 945 946 947 948 949 950 951 952 953 954 955 956 957 958 0
16 -938 930 931 932 933 934 935 936 937 939 940 941 942 943 944 945 946 947 948 949 950 951 952 953 954 955 956 957 958 0
16 -939 930 931 932 933 934 935 936 937 938 940 941 942 943 944 945 946 947 948 949 950 951 952 953 954 955 956 957 958 0
16 -940 930 931 932 933 934 935 936 937 938 939 941 942 943 944 945 946 947 948 949 950 951 952 953 954 955 956 957 958 0
16 -941 930 931 932 933 934 935 936 937 938 939 940 942 943 944 945 946 947 948 949 950 951 952 953 954 955 956 957 958 0
16 -942 930 931 932 933 934 935 936 937 938 939 940 941 943 944 945 946 947 948 949 950 951 952 953 954 955 956 957 958 0
16 -943 930 931 932 933 934 935 936 937 938 939 940 941 942 944 945 946 947 948 949 950 951 952 953 954 955 956 957 958 0
16 -944 930 931 932 933 934 935 936 937 938 939 940 941 942 943 945 946 947 948 949 950 951 952 953 954 955 956 957 958 0
16 -945 930 931 932 933 934 935 936 937 938 939 940 941 942 943 944 946 947 948 949 950 951 952 953 954 955 956 957 958 0
16 -946 930 931 932 933 934 935 936 937 938 939 940 941 942 943 944 945 947 948 949 950 951 952 953 954 955 956 957 958 0
16 -947 930 931 932 933 934 935 936 937 938 939 940 941 942 943 944 945 946 948 949 950 951 952 953 954 955 956 957 958 0
16 -948 930 931 932 933 934 935 936 937 938 939 940 941 942 943 944 945 946 947 949 950 951 952 953 954 955 956 957 958 0
16 -949 930 931 932 933 934 935 936 937 938 939 940 941 942 943 944 945 946 947 948 950 951 952 953 954 955 956 957 958 0
16 -950 930 931 932 933 934 935 936 937 938 939 940 941 942 943 944 945 946 947 948 949 951 952 953 954 955 956 957 958 0
16 -951 930 931 932 933 934 935 936 937 938 939 940 941 942 943 944 945 946 947 948 949 950 952 953 954 955 956 957 958 0
16 -952 930 931 932 933 934 935 936 937 938 939 940 941 942 943 944 945 946 947 948 949 950 951 953 954 955 956 957 958 0
16 -953 930 931 932 933 934 935 936 937 938 939 940 941 942 943 944 945 946 947 948 949 950 951 952 954 955 956 957 958 0
16 -954 930 931 932 933 934 935 936 937 938 939 940 941 942 943 944 945 946 947 948 949 950 951 952 953 955 956 957 958 0
16 -955 930 931 932 933 934 935 936 937 938 939 940 941 942 943 944 945 946 947 948 949 950 951 952 953 954 956 957 958 0
16 -956 930 931 932 933 934 935 936 937 938 939 940 941 942 943 944 945 946 947 948 949 950 951 952 953 954 955 957 958 0
16 -957 930 931 932 933 934 935 936 937 938 939 940 941 942 943 944 945 946 947 948 949 950 951 952 953 954 955 956 958 0
16 -958 930 931 932 933 934 935 936 937 938 939 940 941 942 943 944 945 946 947 948 949 950 951 952 953 954 955 956 957 0
-959 1 0
-959 32 0
-1 -32 959 0
-960 2 0
-960 31 0
-2 -31 960 0
-961 3 0
-961 30 0
-3 -30 961 0
-962 4 0
-962 29 0
-4 -29 962 0
-963 5 0
-963 28 0
-5 -28 963 0
-964 6 0
-964 27 0
-6 -27 964 0
-965 7 0
-965 26 0
-7 -26 965 0
-966 8 0
-966 25 0
-8 -25 966 0
-967 9 0
-967 24 0
-9 -24 967 0
-968 10 0
-968 23 0
-10 -23 968 0
-969 11 0
-969 22 0
-11 -22 969 0
-970 12 0
-970 21 0
-12 -21 970 0
-971 13 0
-971 20 0
-13 -20 971 0
-972 14 0
-972 19 0
-14 -19 972 0
-973 15 0
-973 18 0
-15 -18 973 0
-974 16 0
-974 17 0
-16 -17 974 0
-975 33 0
-975 59 0
-33 -59 975 0
-976 34 0
-976 58 0
-34 -58 976 0
-977 35 0
-977 57 0
-35 -57 977 0
-978 36 0
-978 56 0
-36 -56 978 0
-979 37 0
-979 55 0
-37 -55 979 0
-980 38 0
-980 54 0
-38 -54 980 0
-981 39 0
-981 53 0
-39 -53 981 0
-982 40 0
-982 52 0
-40 -52 982 0
-983 41 0
-983 51 0
-41 -51 983 0
-984 42 0
-984 50 0
-42 -50 984 0
-985 43 0
-985 49 0
-43 -49 985 0
-986 44 0
-986 48 0
-44 -48 986 0
-987 45 0
-987 47 0
-45 -47 987 0
-46 959 960 961 962 963 964 965 966 967 968 969 970 971 972 973 974 975 976 977 978 979 980 981 982 983 984 985 986 987 0
46 -959 960 961 962 963 964 965 966 967 968 969 970 971 972 973 974 975 976 977 978 979 980 981 982 983 984 985 986 987 0
46 -960 959 961 962 963 964 965 966 967 968 969 970 971 972 973 974 975 976 977 978 979 980 981 982 983 984 985 986 987 0
46 -961 959 960 962 963 964 965 966 967 968 969 970 971 972 973 974 975 976 977 978 979 980 981 982 983 984 985 986 987 0
46 -962 959 960 961 963 964 965 966 967 968 969 970 971 972 973 974 975 976 977 978 979 980 981 982 983 984 985 986 987 0
46 -963 959 960 961 962 964 965 966 967 968 969 970 971 972 973 974 975 976 977 978 979 980 981 982 983 984 985 986 987 0
46 -964 959 960 961 962 963 965 966 967 968 969 970 971 972 973 974 975 976 977 978 979 980 981 982 983 984 985 986 987 0
46 -965 959 960 961 962 963 964 966 967 968 969 970 971 972 973 974 975 976 977 978 979 980 981 982 983 984 985 986 987 0
46 -966 959 960 961 962 963 964 965 967 968 969 970 971 972 973 974 975 976 977 978 979 980 981 982 983 984 985 986 987 0
46 -967 959 960 961 962 963 964 965 966 968 969 970 971 972 973 974 975 976 977 978 979 980 981 982 983 984 985 986 987 0
46 -968 959 960 961 962 963 964 965 966 967 969 970 971 972 973 974 975 976 977 978 979 980 981 982 983 984 985 986 987 0
46 -969 959 960 961 962 963 964 965 966 967 968 970 971 972 973 974 975 976 977 978 979 980 981 982 983 984 985 986 987 0
46 -970 959 960 961 962 963 964 965 966 967 968 969 971 972 973 974 975 976 977 978 979 980 981 982 983 984 985 986 987 0
46 -971 959 960 961 962 963 964 965 966 967 968 969 970 972 973 974 975 976 977 978 979 980 981 982 983 984 985 986 987 0
46 -972 959 960 961 962 963 964 965 966 967 968 969 970 971 973 974 975 976 977 978 979 980 981 982 983 984 985 986 987 0
46 -973 959 960 961 962 963 964 965 966 967 968 969 970 971 972 974 975 976 977 978 979 980 981 982 983 984 985 986 987 0
46 -974 959 960 961 962 963 964 965 966 967 968 969 970 971 972 973 975 976 977 978 979 980 981 982 983 984 985 986 987 0
46 -975 959 960 961 962 963 964 965 966 967 968 969 970 971 972 973 974 976 977 978 979 980 981 982 983 984 985 986 987 0
46 -976 959 960 961 962 963 964 965 966 967 968 969 970 971 972 973 974 975 977 978 979 980 981 982 983 984 985 986 987 0
46 -977 959 960 961 962 963 964 965 966 967 968 969 970 971 972 973 974 975 976 978 979 980 981 982 983 984 985 986 987 0
46 -978 959 960 961 962 963 964 965 966 967 968 969 970 971 972 973 974 975 976 977 979 980 981 982 983 984 985 986 987 0
46 -979 959 960 961 962 963 964 965 966 967 968 969 970 971 972 973 974 975 976 977 978 980 981 982 983 984 985 986 987 0
46 -980 959 960 961 962 963 964 965 966 967 968 969 970 971 972 973 974 975 976 977 978 979 981 982 983 984 985 986 987 0
46 -981 959 960 961 962 963 964 965 966 967 968 969 970 971 972 973 974 975 976 977 978 979 980 982 983 984 985 986 987 0
46 -982 959 960 961 962 963 964 965 966 967 968 969 970 971 972 973 974 975 976 977 978 979 980 981 983 984 985 986 987 0
46 -983 959 960 961 962 963 964 965 966 967 968 969 970 971 972 973 974 975 976 977 978 979 980 981 982 984 985 986 987 0
46 -984 959 960 961 962 963 964 965 966 967 968 969 970 971 972 973 974 975 976 977 978 979 980 981 982 983 985 986 987 0
46 -985 959 960 961 962 963 964 965 966 967 968 969 970 971 972 973 974 975 976 977 978 979 980 981 982 983 984 986 987 0
46 -986 959 960 961 962 963 964 965 966 967 968 969 970 971 972 973 974 975 976 977 978 979 980 981 982 983 984 985 987 0
46 -987 959 960 961 962 963 964 965 966 967 968 969 970 971 972 973 974 975 976 977 978 979 980 981 982 983 984 985 986 0
-988 1 0
-988 33 0
-1 -33 988 0
-989 2 0
-989 32 0
-2 -32 989 0
-990 3 0
-990 31 0
-3 -31 990 0
-991 4 0
-991 30 0
-4 -30 991 0
-992 5 0
-992 29 0
-5 -29 992 0
-993 6 0
-993 28 0
-6 -28 993 0
-994 7 0
-994 27 0
-7 -27 994 0
-995 8 0
-995 26 0
-8 -26 995 0
-996 9 0
-996 25 0
-9 -25 996 0
-997 10 0
-997 24 0
-10 -24 997 0
-998 11 0
-998 23 0
-11 -23 998 0
-999 12 0
-999 22 0
-12 -22 999 0
-1000 13 0
-1000 21 0
-13 -21 1000 0
-1001 14 0
-1001 20 0
-14 -20 1001 0
-1002 15 0
-1002 19 0
-15 -19 1002 0
-1003 16 0
-1003 18 0
-16 -18 1003 0
-1004 34 0
-1004 59 0
-34 -59 1004 0
-1005 35 0
-1005 58 0
-35 -58 1005 0
-1006 36 0
-1006 57 0
-36 -57 1006 0
-1007 37 0
-1007 56 0
-37 -56 1007 0
-1008 38 0
-1008 55 0
-38 -55 1008 0
-1009 39 0
-1009 54 0
-39 -54 1009 0
-1010 40 0
-1010 53 0
-40 -53 1010 0
-1011 41 0
-1011 52 0
-41 -52 1011 0
-1012 42 0
-1012 51 0
-42 -51 1012 0
-1013 43 0
-1013 50 0
-43 -50 1013 0
-1014 44 0
-1014 49 0
-44 -49 1014 0
-1015 45 0
-1015 48 0
-45 -48 1015 0
-1016 46 0
-1016 47 0
-46 -47 1016 0
-17 988 989 990 991 992 993 994 995 996 997 998 999 1000 1001 1002 1003 1004 1005 1006 1007 1008 1009 1010 1011 1012 1013 1014 1015 1016 0
17 -988 989 990 991 992 993 994 995 996 997 998 999 1000 1001 1002 1003 1004 1005 1006 1007 1008 1009 1010 1011 1012 1013 1014 1015 1016 0
17 -989 988 990 991 992 993 994 995 996 997 998 999 1000 1001 1002 1003 1004 1005 1006 1007 1008 1009 1010 1011 1012 1013 1014 1015 1016 0
17 -990 988 989 991 992 993 994 995 996 997 998 999 1000 1001 1002 1003 1004 1005 1006 1007 1008 1009 1010 1011 1012 1013 1014 1015 1016 0
17 -991 988 989 990 992 993 994 995 996 997 998 999 1000 1001 1002 1003 1004 1005 1006 1007 1008 1009 1010 1011 1012 1013 1014 1015 1016 0
17 -992 988 989 990 991 993 994 995 996 997 998 999 1000 1001 1002 1003 1004 1005 1006 1007 1008 1009 1010 1011 1012 1013 1014 1015 1016 0
17 -993 988 989 990 991 992 994 995 996 997 998 999 1000 1001 1002 1003 1004 1005 1006 1007 1008 1009 1010 1011 1012 1013 1014 1015 1016 0
17 -994 988 989 990 991 992 993 995 996 997 998 999 1000 1001 1002 1003 1004 1005 1006 1007 1008 1009 1010 1011 1012 1013 1014 1015 1016 0
17 -995 988 989 990 991 992 993 994 996 997 998 999 1000 1001 1002 1003 1004 1005 1006 1007 1008 1009 1010 1011 1012 1013 1014 1015 1016 0
17 -996 988 989 990 991 992 993 994 995 997 998 999 1000 1001 1002 1003 1004 1005 1006 1007 1008 1009 1010 1011 1012 1013 1014 1015 1016 0
17 -997 988 989 990 991 992 993 994 995 996 998 999 1000 1001 1002 1003 1004 1005 1006 1007 1008 1009 1010 1011 1012 1013 1014 1015 1016 0
17 -998 988 989 990 991 992 993 994 995 996 997 999 1000 1001 1002 1003 1004 1005 1006 1007 1008 1009 1010 1011 1012 1013 1014 1015 1016 0
17 -999 988 989 990 991 992 993 994 995 996 997 998 1000 1001 1002 1003 1004 1005 1006 1007 1008 1009 1010 1011 1012 1013 1014 1015 1016 0
17 -1000 988 989 990 991 992 993 994 995 996 997 998 999 1001 1002 1003 1004 1005 1006 1007 1008 1009 1010 1011 1012 1013 1014 1015 1016 0
17 -1001 988 989 990 991 992 993 994 995 996 997 998 999 1000 1002 1003 1004 1005 1006 1007 1008 1009 1010 1011 1012 1013 1014 1015 1016 0
17 -1002 988 989 990 991 992 993 994 995 996 997 998 999 1000 1001 1003 1004 1005 1006 1007 1008 1009 1010 1011 1012 1013 1014 1015 1016 0
17 -1003 988 989 990 991 992 993 994 995 996 997 998 999 1000 1001 1002 1004 1005 1006 1007 1008 1009 1010 1011 1012 1013 1014 1015 1016 0
17 -1004 988 989 990 991 992 993 994 995 996 997 998 999 1000 1001 1002 1003 1005 1006 1007 1008 1009 1010 1011 1012 1013 1014 1015 1016 0
17 -1005 988 989 990 991 992 993 994 995 996 997 998 999 1000 1001 1002 1003 1004 1006 1007 1008 1009 1010 1011 1012 1013 1014 1015 1016 0
17 -1006 988 989 990 991 992 993 994 995 996 997 998 999 1000 1001 1002 1003 1004 1005 1007 1008 1009 1010 1011 1012 1013 1014 1015 1016 0
17 -1007 988 989 990 991 992 993 994 995 996 997 998 999 1000 1001 1002 1003 1004 1005 1006 1008 1009 1010 1011 1012 1013 1014 1015 1016 0
17 -1008 988 989 990 991 992 993 994 995 996 997 998 999 1000 1001 1002 1003 1004 1005 1006 1007 1009 1010 1011 1012 1013 1014 1015 1016 0
17 -1009 988 989 990 991 992 993 994 995 996 997 998 999 1000 1001 1002 1003 1004 1005 1006 1007 1008 1010 1011 1012 1013 1014 1015 1016 0
17 -1010 988 989 990 991 992 993 994 995 996 997 998 999 1000 1001 1002 1003 1004 1005 1006 1007 1008 1009 1011 1012 1013 1014 1015 1016 0
17 -1011 988 989 990 991 992 993 994 995 996 997 998 999 1000 1001 1002 1003 1004 1005 1006 1007 1008 1009 1010 1012 1013 1014 1015 1016 0
17 -1012 988 989 990 991 992 993 994 995 996 997 998 999 1000 1001 1002 1003 1004 1005 1006 1007 1008 1009 1010 1011 1013 1014 1015 1016 0
17 -1013 988 989 990 991 992 993 994 995 996 997 998 999 1000 1001 1002 1003 1004 1005 1006 1007 1008 1009 1010 1011 1012 1014 1015 1016 0
17 -1014 988 989 990 991 992 993 994 995 996 997 998 999 1000 1001 1002 1003 1004 1005 1006 1007 1008 1009 1010 1011 1012 1013 1015 1016 0
17 -1015 988 989 990 991 992 993 994 995 996 997 998 999 1000 1001 1002 1003 1004 1005 1006 1007 1008 1009 1010 1011 1012 1013 1014 1016 0
17 -1016 988 989 990 991 992 993 994 995 996 997 998 999 1000 1001 1002 1003 1004 1005 1006 1007 1008 1009 1010 1011 1012 1013 1014 1015 0
-1017 1 0
-1017 34 0
-1 -34 1017 0
-1018 2 0
-1018 33 0
-2 -33 1018 0
-1019 3 0
-1019 32 0
-3 -32 1019 0
-1020 4 0
-1020 31 0
-4 -31 1020 0
-1021 5 0
-1021 30 0
-5 -30 1021 0
-1022 6 0
-1022 29 0
-6 -29 1022 0
-1023 7 0
-1023 28 0
-7 -28 1023 0
-1024 8 0
-1024 27 0
-8 -27 1024 0
-1025 9 0
-1025 26 0
-9 -26 1025 0
-1026 10 0
-1026 25 0
-10 -25 1026 0
-1027 11 0
-1027 24 0
-11 -24 1027 0
-1028 12 0
-1028 23 0
-12 -23 1028 0
-1029 13 0
-1029 22 0
-13 -22 1029 0
-1030 14 0
-1030 21 0
-14 -21 1030 0
-1031 15 0
-1031 20 0
-15 -20 1031 0
-1032 16 0
-1032 19 0
-16 -19 1032 0
-1033 17 0
-1033 18 0
-17 -18 1033 0
-1034 35 0
-1034 59 0
-35 -59 1034 0
-1035 36 0
-1035 58 0
-36 -58 1035 0
-1036 37 0
-1036 57 0
-37 -57 1036 0
-1037 38 0
-1037 56 0
-38 -56 1037 0
-1038 39 0
-1038 55 0
-39 -55 1038 0
-1039 40 0
-1039 54 0
-40 -54 1039 0
-1040 41 0
-1040 53 0
-41 -53 1040 0
-1041 42 0
-1041 52 0
-42 -52 1041 0
-1042 43 0
-1042 51 0
-43 -51 1042 0
-1043 44 0
-1043 50 0
-44 -50 1043 0
-1044 45 0
-1044 49 0
-45 -49 1044 0
-1045 46 0
-1045 48 0
-46 -48 1045 0
-47 1017 1018 1019 1020 1021 1022 1023 1024 1025 1026 1027 1028 1029 1030 1031 1032 1033 1034 1035 1036 1037 1038 1039 1040 1041 1042 1043 1044 1045 0
47 -1017 1018 1019 1020 1021 1022 1023 1024 1025 1026 1027 1028 1029 1030 1031 1032 1033 1034 1035 1036 1037 1038 1039 1040 1041 1042 1043 1044 1045 0
47 -1018 1017 1019 1020 1021 1022 1023 1024 1025 1026 1027 1028 1029 1030 1031 1032 1033 1034 1035 1036 1037 1038 1039 1040 1041 1042 1043 1044 1045 0
47 -1019 1017 1018 1020 1021 1022 1023 1024 1025 1026 1027 1028 1029 1030 1031 1032 1033 1034 1035 1036 1037 1038 1039 1040 1041 1042 1043 1044 1045 0
47 -1020 1017 1018 1019 1021 1022 1023 1024 1025 1026 1027 1028 1029 1030 1031 1032 1033 1034 1035 1036 1037 1038 1039 1040 1041 1042 1043 1044 1045 0
47 -1021 1017 1018 1019 1020 1022 1023 1024 1025 1026 1027 1028 1029 1030 1031 1032 1033 1034 1035 1036 1037 1038 1039 1040 1041 1042 1043 1044 1045 0
47 -1022 1017 1018 1019 1020 1021 1023 1024 1025 1026 1027 1028 1029 1030 1031 1032 1033 1034 1035 1036 1037 1038 1039 1040 1041 1042 1043 1044 1045 0
47 -1023 1017 1018 1019 1020 1021 1022 1024 1025 1026 1027 1028 1029 1030 1031 1032 1033 1034 1035 1036 1037 1038 1039 1040 1041 1042 1043 1044 1045 0
47 -1024 1017 1018 1019 1020 1021 1022 1023 1025 1026 1027 1028 1029 1030 1031 1032 1033 1034 1035 1036 1037 1038 1039 1040 1041 1042 1043 1044 1045 0
47 -1025 1017 1018 1019 1020 1021 1022 1023 1024 1026 1027 1028 1029 1030 1031 1032 1033 1034 1035 1036 1037 1038 1039 1040 1041 1042 1043 1044 1045 0
47 -1026 1017 1018 1019 1020 1021 1022 1023 1024 1025 1027 1028 1029 1030 1031 1032 1033 1034 1035 1036 1037 1038 1039 1040 1041 1042 1043 1044 1045 0
47 -1027 1017 1018 1019 1020 1021 1022 1023 1024 1025 1026 1028 1029 1030 1031 1032 1033 1034 1035 1036 1037 1038 1039 1040 1041 1042 1043 1044 1045 0
47 -1028 1017 1018 1019 1020 1021 1022 1023 1024 1025 1026 1027 1029 1030 1031 1032 1033 1034 1035 1036 1037 1038 1039 1040 1041 1042 1043 1044 1045 0
47 -1029 1017 1018 1019 1020 1021 1022 1023 1024 1025 1026 1027 1028 1030 1031 1032 1033 1034 1035 1036 1037 1038 1039 1040 1041 1042 1043 1044 1045 0
47 -1030 1017 1018 1019 1020 1021 1022 1023 1024 1025 1026 1027 1028 1029 1031 1032 1033 1034 1035 1036 1037 1038 1039 1040 1041 1042 1043 1044 1045 0
47 -1031 1017 1018 1019 1020 1021 1022 1023 1024 1025 1026 1027 1028 1029 1030 1032 1033 1034 1035 1036 1037 1038 1039 1040 1041 1042 1043 1044 1045 0
47 -1032 1017 1018 1019 1020 1021 1022 1023 1024 1025 1026 1027 1028 1029 1030 1031 1033 1034 1035 1036 1037 1038 1039 1040 1041 1042 1043 1044 1045 0
47 -1033 1017 1018 1019 1020 1021 1022 1023 1024 1025 1026 1027 1028 1029 1030 1031 1032 1034 1035 1036 1037 1038 1039 1040 1041 1042 1043 1044 1045 0
47 -1034 1017 1018 1019 1020 1021 1022 1023 1024 1025 1026 1027 1028 1029 1030 1031 1032 1033 1035 1036 1037 1038 1039 1040 1041 1042 1043 1044 1045 0
47 -1035 1017 1018 1019 1020 1021 1022 1023 1024 1025 1026 1027 1028 1029 1030 1031 1032 1033 1034 1036 1037 1038 1039 1040 1041 1042 1043 1044 1045 0
47 -1036 1017 1018 1019 1020 1021 1022 1023 1024 1025 1026 1027 1028 1029 1030 1031 1032 1033 1034 1035 1037 1038 1039 1040 1041 1042 1043 1044 1045 0
47 -1037 1017 1018 1019 1020 1021 1022 1023 1024 1025 1026 1027 1028 1029 1030 1031 1032 1033 1034 1035 1036 1038 1039 1040 1041 1042 1043 1044 1045 0
47 -1038 1017 1018 1019 1020 1021 1022 1023 1024 1025 1026 1027 1028 1029 1030 1031 1032 1033 1034 1035 1036 1037 1039 1040 1041 1042 1043 1044 1045 0
47 -1039 1017 1018 1019 1020 1021 1022 1023 1024 1025 1026 1027 1028 1029 1030 1031 1032 1033 1034 1035 1036 1037 1038 1040 1041 1042 1043 1044 1045 0
47 -1040 1017 1018 1019 1020 1021 1022 1023 1024 1025 1026 1027 1028 1029 1030 1031 1032 1033 1034 1035 1036 1037 1038 1039 1041 1042 1043 1044 1045 0
47 -1041 1017 1018 1019 1020 1021 1022 1023 1024 1025 1026 1027 1028 1029 1030 1031 1032 1033 1034 1035 1036 1037 1038 1039 1040 1042 1043 1044 1045 0
47 -1042 1017 1018 1019 1020 1021 1022 1023 1024 1025 1026 1027 1028 1029 1030 1031 1032 1033 1034 1035 1036 1037 1038 1039 1040 1041 1043 1044 1045 0
47 -1043 1017 1018 1019 1020 1021 1022 1023 1024 1025 1026 1027 1028 1029 1030 1031 1032 1033 1034 1035 1036 1037 1038 1039 1040 1041 1042 1044 1045 0
47 -1044 1017 1018 1019 1020 1021 1022 1023 1024 1025 1026 1027 1028 1029 1030 1031 1032 1033 1034 1035 1036 1037 1038 1039 1040 1041 1042 1043 1045 0
47 -1045 1017 1018 1019 1020 1021 1022 1023 1024 1025 1026 1027 1028 1029 1030 1031 1032 1033 1034 1035 1036 1037 1038 1039 1040 1041 1042 1043 1044 0
-1046 1 0
-1046 35 0
-1 -35 1046 0
-1047 2 0
-1047 34 0
-2 -34 1047 0
-1048 3 0
-1048 33 0
-3 -33 1048 0
-1049 4 0
-1049 32 0
-4 -32 1049 0
-1050 5 0
-1050 31 0
-5 -31 1050 0
-1051 6 0
-1051 30 0
-6 -30 1051 0
-1052 7 0
-1052 29 0
-7 -29 1052 0
-1053 8 0
-1053 28 0
-8 -28 1053 0
-1054 9 0
-1054 27 0
-9 -27 1054 0
-1055 10 0
-1055 26 0
-10 -26 1055 0
-1056 11 0
-1056 25 0
-11 -25 1056 0
-1057 12 0
-1057 24 0
-12 -24 1057 0
-1058 13 0
-1058 23 0
-13 -23 1058 0
-1059 14 0
-1059 22 0
-14 -22 1059 0
-1060 15 0
-1060 21 0
-15 -21 1060 0
-1061 16 0
-1061 20 0
-16 -20 1061 0
-1062 17 0
-1062 19 0
-17 -19 1062 0
-1063 36 0
-1063 59 0
-36 -59 1063 0
-1064 37 0
-1064 58 0
-37 -58 1064 0
-1065 38 0
-1065 57 0
-38 -57 1065 0
-1066 39 0
-1066 56 0
-39 -56 1066 0
-1067 40 0
-1067 55 0
-40 -55 1067 0
-1068 41 0
-1068 54 0
-41 -54 1068 0
-1069 42 0
-1069 53 0
-42 -53 1069 0
-1070 43 0
-1070 52 0
-43 -52 1070 0
-1071 44 0
-1071 51 0
-44 -51 1071 0
-1072 45 0
-1072 50 0
-45 -50 1072 0
-1073 46 0
-1073 49 0
-46 -49 1073 0
-1074 47 0
-1074 48 0
-47 -48 1074 0
-18 1046 1047 1048 1049 1050 1051 1052 1053 1054 1055 1056 1057 1058 1059 1060 1061 1062 1063 1064 1065 1066 1067 1068 1069 1070 1071 1072 1073 1074 0
18 -1046 1047 1048 1049 1050 1051 1052 1053 1054 1055 1056 1057 1058 1059 1060 1061 1062 1063 1064 1065 1066 1067 1068 1069 1070 1071 1072 1073 1074 0
18 -1047 1046 1048 1049 1050 1051 1052 1053 1054 1055 1056 1057 1058 1059 1060 1061 1062 1063 1064 1065 1066 1067 1068 1069 1070 1071 1072 1073 1074 0
18 -1048 1046 1047 1049 1050 1051 1052 1053 1054 1055 1056 1057 1058 1059 1060 1061 1062 1063 1064 1065 1066 1067 1068 1069 1070 1071 1072 1073 1074 0
18 -1049 1046 1047 1048 1050 1051 1052 1053 1054 1055 1056 1057 1058 1059 1060 1061 1062 1063 1064 1065 1066 1067 1068 1069 1070 1071 1072 1073 1074 0
18 -1050 1046 1047 1048 1049 1051 1052 1053 1054 1055 1056 1057 1058 1059 1060 1061 1062 1063 1064 1065 1066 1067 1068 1069 1070 1071 1072 1073 1074 0
18 -1051 1046 1047 1048 1049 1050 1052 1053 1054 1055 1056 1057 1058 1059 1060 1061 1062 1063 1064 1065 1066 1067 1068 1069 1070 1071 1072 1073 1074 0
18 -1052 1046 1047 1048 1049 1050 1051 1053 1054 1055 1056 1057 1058 1059 1060 1061 1062 1063 1064 1065 1066 1067 1068 1069 1070 1071 1072 1073 1074 0
18 -1053 1046 1047 1048 1049 1050 1051 1052 1054 1055 1056 1057 1058 1059 1060 1061 1062 1063 1064 1065 1066 1067 1068 1069 1070 1071 1072 1073 1074 0
18 -1054 1046 1047 1048 1049 1050 1051 1052 1053 1055 1056 1057 1058 1059 1060 1061 1062 1063 1064 1065 1066 1067 1068 1069 1070 1071 1072 1073 1074 0
18 -1055 1046 1047 1048 1049 1050 1051 1052 1053 1054 1056 1057 1058 1059 1060 1061 1062 1063 1064 1065 1066 1067 1068 1069 1070 1071 1072 1073 1074 0
18 -1056 1046 1047 1048 1049 1050 1051 1052 1053 1054 1055 1057 1058 1059 1060 1061 1062 1063 1064 1065 1066 1067 1068 1069 1070 1071 1072 1073 1074 0
18 -1057 1046 1047 1048 1049 1050 1051 1052 1053 1054 1055 1056 1058 1059 1060 1061 1062 1063 1064 1065 1066 1067 1068 1069 1070 1071 1072 1073 1074 0
18 -1058 1046 1047 1048 1049 1050 1051 1052 1053 1054 1055 1056 1057 1059 1060 1061 1062 1063 1064 1065 1066 1067 1068 1069 1070 1071 1072 1073 1074 0
18 -1059 1046 1047 1048 1049 1050 1051 1052 1053 1054 1055 1056 1057 1058 1060 1061 1062 1063 1064 1065 1066 1067 1068 1069 1070 1071 1072 1073 1074 0
18 -1060 1046 1047 1048 1049 1050 1051 1052 1053 1054 1055 1056 1057 1058 1059 1061 1062 1063 1064 1065 1066 1067 1068 1069 1070 1071 1072 1073 1074 0
18 -1061 1046 1047 1048 1049 1050 1051 1052 1053 1054 1055 1056 1057 1058 1059 1060 1062 1063 1064 1065 1066 1067 1068 1069 1070 1071 1072 1073 1074 0
18 -1062 1046 1047 1048 1049 1050 1051 1052 1053 1054 1055 1056 1057 1058 1059 1060 1061 1063 1064 1065 1066 1067 1068 1069 1070 1071 1072 1073 1074 0
18 -1063 1046 1047 1048 1049 1050 1051 1052 1053 1054 1055 1056 1057 1058 1059 1060 1061 1062 1064 1065 1066 1067 1068 1069 1070 1071 1072 1073 1074 0
18 -1064 1046 1047 1048 1049 1050 1051 1052 1053 1054 1055 1056 1057 1058 1059 1060 1061 1062 1063 1065 1066 1067 1068 1069 1070 1071 1072 1073 1074 0
18 -1065 1046 1047 1048 1049 1050 1051 1052 1053 1054 1055 1056 1057 1058 1059 1060 1061 1062 1063 1064 1066 1067 1068 1069 1070 1071 1072 1073 1074 0
18 -1066 1046 1047 1048 1049 1050 1051 1052 1053 1054 1055 1056 1057 1058 1059 1060 1061 1062 1063 1064 1065 1067 1068 1069 1070 1071 1072 1073 1074 0
18 -1067 1046 1047 1048 1049 1050 1051 1052 1053 1054 1055 1056 1057 1058 1059 1060 1061 1062 1063 1064 1065 1066 1068 1069 1070 1071 1072 1073 1074 0
18 -1068 1046 1047 1048 1049 1050 1051 1052 1053 1054 1055 1056 1057 1058 1059 1060 1061 1062 1063 1064 1065 1066 1067 1069 1070 1071 1072 1073 1074 0
18 -1069 1046 1047 1048 1049 1050 1051 1052 1053 1054 1055 1056 1057 1058 1059 1060 1061 1062 1063 1064 1065 1066 1067 1068 1070 1071 1072 1073 1074 0
18 -1070 1046 1047 1048 1049 1050 1051 1052 1053 1054 1055 1056 1057 1058 1059 1060 1061 1062 1063 1064 1065 1066 1067 1068 1069 1071 1072 1073 1074 0
18 -1071 1046 1047 1048 1049 1050 1051 1052 1053 1054 1055 1056 1057 1058 1059 1060 1061 1062 1063 1064 1065 1066 1067 1068 1069 1070 1072 1073 1074 0
18 -1072 1046 1047 1048 1049 1050 1051 1052 1053 1054 1055 1056 1057 1058 1059 1060 1061 1062 1063 1064 1065 1066 1067 1068 1069 1070 1071 1073 1074 0
18 -1073 1046 1047 1048 1049 1050 1051 1052 1053 1054 1055 1056 1057 1058 1059 1060 1061 1062 1063 1064 1065 1066 1067 1068 1069 1070 1071 1072 1074 0
18 -1074 1046 1047 1048 1049 1050 1051 1052 1053 1054 1055 1056 1057 1058 1059 1060 1061 1062 1063 1064 1065 1066 1067 1068 1069 1070 1071 1072 1073 0
-1075 1 0
-1075 36 0
-1 -36 1075 0
-1076 2 0
-1076 35 0
-2 -35 1076 0
-1077 3 0
-1077 34 0
-3 -34 1077 0
-1078 4 0
-1078 33 0
-4 -33 1078 0
-1079 5 0
-1079 32 0
-5 -32 1079 0
-1080 6 0
-1080 31 0
-6 -31 1080 0
-1081 7 0
-1081 30 0
-7 -30 1081 0
-1082 8 0
-1082 29 0
-8 -29 1082 0
-1083 9 0
-1083 28 0
-9 -28 1083 0
-1084 10 0
-1084 27 0
-10 -27 1084 0
-1085 11 0
-1085 26 0
-11 -26 1085 0
-1086 12 0
-1086 25 0
-12 -25 1086 0
-1087 13 0
-1087 24 0
-13 -24 1087 0
-1088 14 0
-1088 23 0
-14 -23 1088 0
-1089 15 0
-1089 22 0
-15 -22 1089 0
-1090 16 0
-1090 21 0
-16 -21 1090 0
-1091 17 0
-1091 20 0
-17 -20 1091 0
-1092 18 0
-1092 19 0
-18 -19 1092 0
-1093 37 0
-1093 59 0
-37 -59 1093 0
-1094 38 0
-1094 58 0
-38 -58 1094 0
-1095 39 0
-1095 57 0
-39 -57 1095 0
-1096 40 0
-1096 56 0
-40 -56 1096 0
-1097 41 0
-1097 55 0
-41 -55 1097 0
-1098 42 0
-1098 54 0
-42 -54 1098 0
-1099 43 0
-1099 53 0
-43 -53 1099 0
-1100 44 0
-1100 52 0
-44 -52 1100 0
-1101 45 0
-1101 51 0
-45 -51 1101 0
-1102 46 0
-1102 50 0
-46 -50 1102 0
-1103 47 0
-1103 49 0
-47 -49 1103 0
-48 1075 1076 1077 1078 1079 1080 1081 1082 1083 1084 1085 1086 1087 1088 1089 1090 1091 1092 1093 1094 1095 1096 1097 1098 1099 1100 1101 1102 1103 0
48 -1075 1076 1077 1078 1079 1080 1081 1082 1083 1084 1085 1086 1087 1088 1089 1090 1091 1092 1093 1094 1095 1096 1097 1098 1099 1100 1101 1102 1103 0
48 -1076 1075 1077 1078 1079 1080 1081 1082 1083 1084 1085 1086 1087 1088 1089 1090 1091 1092 1093 1094 1095 1096 1097 1098 1099 1100 1101 1102 1103 0
48 -1077 1075 1076 1078 1079 1080 1081 1082 1083 1084 1085 1086 1087 1088 1089 1090 1091 1092 1093 1094 1095 1096 1097 1098 1099 1100 1101 1102 1103 0
48 -1078 1075 1076 1077 1079 1080 1081 1082 1083 1084 1085 1086 1087 1088 1089 1090 1091 1092 1093 1094 1095 1096 1097 1098 1099 1100 1101 1102 1103 0
48 -1079 1075 1076 1077 1078 1080 1081 1082 1083 1084 1085 1086 1087 1088 1089 1090 1091 1092 1093 1094 1095 1096 1097 1098 1099 1100 1101 1102 1103 0
48 -1080 1075 1076 1077 1078 1079 1081 1082 1083 1084 1085 1086 1087 1088 1089 1090 1091 1092 1093 1094 1095 1096 1097 1098 1099 1100 1101 1102 1103 0
48 -1081 1075 1076 1077 1078 1079 1080 1082 1083 1084 1085 1086 1087 1088 1089 1090 1091 1092 1093 1094 1095 1096 1097 1098 1099 1100 1101 1102 1103 0
48 -1082 1075 1076 1077 1078 1079 1080 1081 1083 1084 1085 1086 1087 1088 1089 1090 1091 1092 1093 1094 1095 1096 1097 1098 1099 1100 1101 1102 1103 0
48 -1083 1075 1076 1077 1078 1079 1080 1081 1082 1084 1085 1086 1087 1088 1089 1090 1091 1092 1093 1094 1095 1096 1097 1098 1099 1100 1101 1102 1103 0
48 -1084 1075 1076 1077 1078 1079 1080 1081 1082 1083 1085 1086 1087 1088 1089 1090 1091 1092 1093 1094 1095 1096 1097 1098 1099 1100 1101 1102 1103 0
48 -1085 1075 1076 1077 1078 1079 1080 1081 1082 1083 1084 1086 1087 1088 1089 1090 1091 1092 1093 1094 1095 1096 1097 1098 1099 1100 1101 1102 1103 0
48 -1086 1075 1076 1077 1078 1079 1080 1081 1082 1083 1084 1085 1087 1088 1089 1090 1091 1092 1093 1094 1095 1096 1097 1098 1099 1100 1101 1102 1103 0
48 -1087 1075 1076 1077 1078 1079 1080 1081 1082 1083 1084 1085 1086 1088 1089 1090 1091 1092 1093 1094 1095 1096 1097 1098 1099 1100 1101 1102 1103 0
48 -1088 1075 1076 1077 1078 1079 1080 1081 1082 1083 1084 1085 1086 1087 1089 1090 1091 1092 1093 1094 1095 1096 1097 1098 1099 1100 1101 1102 1103 0
48 -1089 1075 1076 1077 1078 1079 1080 1081 1082 1083 1084 1085 1086 1087 1088 1090 1091 1092 1093 1094 1095 1096 1097 1098 1099 1100 1101 1102 1103 0
48 -1090 1075 1076 1077 1078 1079 1080 1081 1082 1083 1084 1085 1086 1087 1088 1089 1091 1092 1093 1094 1095 1096 1097 1098 1099 1100 1101 1102 1103 0
48 -1091 1075 1076 1077 1078 1079 1080 1081 1082 1083 1084 1085 1086 1087 1088 1089 1090 1092 1093 1094 1095 1096 1097 1098 1099 1100 1101 1102 1103 0
48 -1092 1075 1076 1077 1078 1079 1080 1081 1082 1083 1084 1085 1086 1087 1088 1089 1090 1091 1093 1094 1095 1096 1097 1098 1099 1100 1101 1102 1103 0
48 -1093 1075 1076 1077 1078 1079 1080 1081 1082 1083 1084 1085 1086 1087 1088 1089 1090 1091 1092 1094 1095 1096 1097 1098 1099 1100 1101 1102 1103 0
48 -1094 1075 1076 1077 1078 1079 1080 1081 1082 1083 1084 1085 1086 1087 1088 1089 1090 1091 1092 1093 1095 1096 1097 1098 1099 1100 1101 1102 1103 0
48 -1095 1075 1076 1077 1078 1079 1080 1081 1082 1083 1084 1085 1086 1087 1088 1089 1090 1091 1092 1093 1094 1096 1097 1098 1099 1100 1101 1102 1103 0
48 -1096 1075 1076 1077 1078 1079 1080 1081 1082 1083 1084 1085 1086 1087 1088 1089 1090 1091 1092 1093 1094 1095 1097 1098 1099 1100 1101 1102 1103 0
48 -1097 1075 1076 1077 1078 1079 1080 1081 1082 1083 1084 1085 1086 1087 1088 1089 1090 1091 1092 1093 1094 1095 1096 1098 1099 1100 1101 1102 1103 0
48 -1098 1075 1076 1077 1078 1079 1080 1081 1082 1083 1084 1085 1086 1087 1088 1089 1090 1091 1092 1093 1094 1095 1096 1097 1099 1100 1101 1102 1103 0
48 -1099 1075 1076 1077 1078 1079 1080 1081 1082 1083 1084 1085 1086 1087 1088 1089 1090 1091 1092 1093 1094 1095 1096 1097 1098 1100 1101 1102 1103 0
48 -1100 1075 1076 1077 1078 1079 1080 1081 1082 1083 1084 1085 1086 1087 1088 1089 1090 1091 1092 1093 1094 1095 1096 1097 1098 1099 1101 1102 1103 0
48 -1101 1075 1076 1077 1078 1079 1080 1081 1082 1083 1084 1085 1086 1087 1088 1089 1090 1091 1092 1093 1094 1095 1096 1097 1098 1099 1100 1102 1103 0
48 -1102 1075 1076 1077 1078 1079 1080 1081 1082 1083 1084 1085 1086 1087 1088 1089 1090 1091 1092 1093 1094 1095 1096 1097 1098 1099 1100 1101 1103 0
48 -1103 1075 1076 1077 1078 1079 1080 1081 1082 1083 1084 1085 1086 1087 1088 1089 1090 1091 1092 1093 1094 1095 1096 1097 1098 1099 1100 1101 1102 0
-1104 1 0
-1104 37 0
-1 -37 1104 0
-1105 2 0
-1105 36 0
-2 -36 1105 0
-1106 3 0
-1106 35 0
-3 -35 1106 0
-1107 4 0
-1107 34 0
-4 -34 1107 0
-1108 5 0
-1108 33 0
-5 -33 1108 0
-1109 6 0
-1109 32 0
-6 -32 1109 0
-1110 7 0
-1110 31 0
-7 -31 1110 0
-1111 8 0
-1111 30 0
-8 -30 1111 0
-1112 9 0
-1112 29 0
-9 -29 1112 0
-1113 10 0
-1113 28 0
-10 -28 1113 0
-1114 11 0
-1114 27 0
-11 -27 1114 0
-1115 12 0
-1115 26 0
-12 -26 1115 0
-1116 13 0
-1116 25 0
-13 -25 1116 0
-1117 14 0
-1117 24 0
-14 -24 1117 0
-1118 15 0
-1118 23 0
-15 -23 1118 0
-1119 16 0
-1119 22 0
-16 -22 1119 0
-1120 17 0
-1120 21 0
-17 -21 1120 0
-1121 18 0
-1121 20 0
-18 -20 1121 0
-1122 38 0
-1122 59 0
-38 -59 1122 0
-1123 39 0
-1123 58 0
-39 -58 1123 0
-1124 40 0
-1124 57 0
-40 -57 1124 0
-1125 41 0
-1125 56 0
-41 -56 1125 0
-1126 42 0
-1126 55 0
-42 -55 1126 0
-1127 43 0
-1127 54 0
-43 -54 1127 0
-1128 44 0
-1128 53 0
-44 -53 1128 0
-1129 45 0
-1129 52 0
-45 -52 1129 0
-1130 46 0
-1130 51 0
-46 -51 1130 0
-1131 47 0
-1131 50 0
-47 -50 1131 0
-1132 48 0
-1132 49 0
-48 -49 1132 0
-19 1104 1105 1106 1107 1108 1109 1110 1111 1112 1113 1114 1115 1116 1117 1118 1119 1120 1121 1122 1123 1124 1125 1126 1127 1128 1129 1130 1131 1132 0
19 -1104 1105 1106 1107 1108 1109 1110 1111 1112 1113 1114 1115 1116 1117 1118 1119 1120 1121 1122 1123 1124 1125 1126 1127 1128 1129 1130 1131 1132 0
19 -1105 1104 1106 1107 1108 1109 1110 1111 1112 1113 1114 1115 1116 1117 1118 1119 1120 1121 1122 1123 1124 1125 1126 1127 1128 1129 1130 1131 1132 0
19 -1106 1104 1105 1107 1108 1109 1110 1111 1112 1113 1114 1115 1116 1117 1118 1119 1120 1121 1122 1123 1124 1125 1126 1127 1128 1129 1130 1131 1132 0
19 -1107 1104 1105 1106 1108 1109 1110 1111 1112 1113 1114 1115 1116 1117 1118 1119 1120 1121 1122 1123 1124 1125 1126 1127 1128 1129 1130 1131 1132 0
19 -1108 1104 1105 1106 1107 1109 1110 1111 1112 1113 1114 1115 1116 1117 1118 1119 1120 1121 1122 1123 1124 1125 1126 1127 1128 1129 1130 1131 1132 0
19 -1109 1104 1105 1106 1107 1108 1110 1111 1112 1113 1114 1115 1116 1117 1118 1119 1120 1121 1122 1123 1124 1125 1126 1127 1128 1129 1130 1131 1132 0
19 -1110 1104 1105 1106 1107 1108 1109 1111 1112 1113 1114 1115 1116 1117 1118 1119 1120 1121 1122 1123 1124 1125 1126 1127 1128 1129 1130 1131 1132 0
19 -1111 1104 1105 1106 1107 1108 1109 1110 1112 1113 1114 1115 1116 1117 1118 1119 1120 1121 1122 1123 1124 1125 1126 1127 1128 1129 1130 1131 1132 0
19 -1112 1104 1105 1106 1107 1108 1109 1110 1111 1113 1114 1115 1116 1117 1118 1119 1120 1121 1122 1123 1124 1125 1126 1127 1128 1129 1130 1131 1132 0
19 -1113 1104 1105 1106 1107 1108 1109 1110 1111 1112 1114 1115 1116 1117 1118 1119 1120 1121 1122 1123 1124 1125 1126 1127 1128 1129 1130 1131 1132 0
19 -1114 1104 1105 1106 1107 1108 1109 1110 1111 1112 1113 1115 1116 1117 1118 1119 1120 1121 1122 1123 1124 1125 1126 1127 1128 1129 1130 1131 1132 0
19 -1115 1104 1105 1106 1107 1108 1109 1110 1111 1112 1113 1114 1116 1117 1118 1119 1120 1121 1122 1123 1124 1125 1126 1127 1128 1129 1130 1131 1132 0
19 -1116 1104 1105 1106 1107 1108 1109 1110 1111 1112 1113 1114 1115 1117 1118 1119 1120 1121 1122 1123 1124 1125 1126 1127 1128 1129 1130 1131 1132 0
19 -1117 1104 1105 1106 1107 1108 1109 1110 1111 1112 1113 1114 1115 1116 1118 1119 1120 1121 1122 1123 1124 1125 1126 1127 1128 1129 1130 1131 1132 0
19 -1118 1104 1105 1106 1107 1108 1109 1110 1111 1112 1113 1114 1115 1116 1117 1119 1120 1121 1122 1123 1124 1125 1126 1127 1128 1129 1130 1131 1132 0
19 -1119 1104 1105 1106 1107 1108 1109 1110 1111 1112 1113 1114 1115 1116 1117 1118 1120 1121 1122 1123 1124 1125 1126 1127 1128 1129 1130 1131 1132 0
19 -1120 1104 1105 1106 1107 1108 1109 1110 1111 1112 1113 1114 1115 1116 1117 1118 1119 1121 1122 1123 1124 1125 1126 1127 1128 1129 1130 1131 1132 0
19 -1121 1104 1105 1106 1107 1108 1109 1110 1111 1112 1113 1114 1115 1116 1117 1118 1119 1120 1122 1123 1124 1125 1126 1127 1128 1129 1130 1131 1132 0
19 -1122 1104 1105 1106 1107 1108 1109 1110 1111 1112 1113 1114 1115 1116 1117 1118 1119 1120 1121 1123 1124 1125 1126 1127 1128 1129 1130 1131 1132 0
19 -1123 1104 1105 1106 1107 1108 1109 1110 1111 1112 1113 1114 1115 1116 1117 1118 1119 1120 1121 1122 1124 1125 1126 1127 1128 1129 1130 1131 1132 0
19 -1124 1104 1105 1106 1107 1108 1109 1110 1111 1112 1113 1114 1115 1116 1117 1118 1119 1120 1121 1122 1123 1125 1126 1127 1128 1129 1130 1131 1132 0
19 -1125 1104 1105 1106 1107 1108 1109 1110 1111 1112 1113 1114 1115 1116 1117 1118 1119 1120 1121 1122 1123 1124 1126 1127 1128 1129 1130 1131 1132 0
19 -1126 1104 1105 1106 1107 1108 1109 1110 1111 1112 1113 1114 1115 1116 1117 1118 1119 1120 1121 1122 1123 1124 1125 1127 1128 1129 1130 1131 1132 0
19 -1127 1104 1105 1106 1107 1108 1109 1110 1111 1112 1113 1114 1115 1116 1117 1118 1119 1120 1121 1122 1123 1124 1125 1126 1128 1129 1130 1131 1132 0
19 -1128 1104 1105 1106 1107 1108 1109 1110 1111 1112 1113 1114 1115 1116 1117 1118 1119 1120 1121 1122 1123 1124 1125 1126 1127 1129 1130 1131 1132 0
19 -1129 1104 1105 1106 1107 1108 1109 1110 1111 1112 1113 1114 1115 1116 1117 1118 1119 1120 1121 1122 1123 1124 1125 1126 1127 1128 1130 1131 1132 0
19 -1130 1104 1105 1106 1107 1108 1109 1110 1111 1112 1113 1114 1115 1116 1117 1118 1119 1120 1121 1122 1123 1124 1125 1126 1127 1128 1129 1131 1132 0
19 -1131 1104 1105 1106 1107 1108 1109 1110 1111 1112 1113 1114 1115 1116 1117 1118 1119 1120 1121 1122 1123 1124 1125 1126 1127 1128 1129 1130 1132 0
19 -1132 1104 1105 1106 1107 1108 1109 1110 1111 1112 1113 1114 1115 1116 1117 1118 1119 1120 1121 1122 1123 1124 1125 1126 1127 1128 1129 1130 1131 0
-1133 1 0
-1133 38 0
-1 -38 1133 0
-1134 2 0
-1134 37 0
-2 -37 1134 0
-1135 3 0
-1135 36 0
-3 -36 1135 0
-1136 4 0
-1136 35 0
-4 -35 1136 0
-1137 5 0
-1137 34 0
-5 -34 1137 0
-1138 6 0
-1138 33 0
-6 -33 1138 0
-1139 7 0
-1139 32 0
-7 -32 1139 0
-1140 8 0
-1140 31 0
-8 -31 1140 0
-1141 9 0
-1141 30 0
-9 -30 1141 0
-1142 10 0
-1142 29 0
-10 -29 1142 0
-1143 11 0
-1143 28 0
-11 -28 1143 0
-1144 12 0
-1144 27 0
-12 -27 1144 0
-1145 13 0
-1145 26 0
-13 -26 1145 0
-1146 14 0
-1146 25 0
-14 -25 1146 0
-1147 15 0
-1147 24 0
-15 -24 1147 0
-1148 16 0
-1148 23 0
-16 -23 1148 0
-1149 17 0
-1149 22 0
-17 -22 1149 0
-1150 18 0
-1150 21 0
-18 -21 1150 0
-1151 19 0
-1151 20 0
-19 -20 1151 0
-1152 39 0
-1152 59 0
-39 -59 1152 0
-1153 40 0
-1153 58 0
-40 -58 1153 0
-1154 41 0
-1154 57 0
-41 -57 1154 0
-1155 42 0
-1155 56 0
-42 -56 1155 0
-1156 43 0
-1156 55 0
-43 -55 1156 0
-1157 44 0
-1157 54 0
-44 -54 1157 0
-1158 45 0
-1158 53 0
-45 -53 1158 0
-1159 46 0
-1159 52 0
-46 -52 1159 0
-1160 47 0
-1160 51 0
-47 -51 1160 0
-1161 48 0
-1161 50 0
-48 -50 1161 0
-49 1133 1134 1135 1136 1137 1138 1139 1140 1141 1142 1143 1144 1145 1146 1147 1148 1149 1150 1151 1152 1153 1154 1155 1156 1157 1158 1159 1160 1161 0
49 -1133 1134 1135 1136 1137 1138 1139 1140 1141 1142 1143 1144 1145 1146 1147 1148 1149 1150 1151 1152 1153 1154 1155 1156 1157 1158 1159 1160 1161 0
49 -1134 1133 1135 1136 1137 1138 1139 1140 1141 1142 1143 1144 1145 1146 1147 1148 1149 1150 1151 1152 1153 1154 1155 1156 1157 1158 1159 1160 1161 0
49 -1135 1133 1134 1136 1137 1138 1139 1140 1141 1142 1143 1144 1145 1146 1147 1148 1149 1150 1151 1152 1153 1154 1155 1156 1157 1158 1159 1160 1161 0
49 -1136 1133 1134 1135 1137 1138 1139 1140 1141 1142 1143 1144 1145 1146 1147 1148 1149 1150 1151 1152 1153 1154 1155 1156 1157 1158 1159 1160 1161 0
49 -1137 1133 1134 1135 1136 1138 1139 1140 1141 1142 1143 1144 1145 1146 1147 1148 1149 1150 1151 1152 1153 1154 1155 1156 1157 1158 1159 1160 1161 0
49 -1138 1133 1134 1135 1136 1137 1139 1140 1141 1142 1143 1144 1145 1146 1147 1148 1149 1150 1151 1152 1153 1154 1155 1156 1157 1158 1159 1160 1161 0
49 -1139 1133 1134 1135 1136 1137 1138 1140 1141 1142 1143 1144 1145 1146 1147 1148 1149 1150 1151 1152 1153 1154 1155 1156 1157 1158 1159 1160 1161 0
49 -1140 1133 1134 1135 1136 1137 1138 1139 1141 1142 1143 1144 1145 1146 1147 1148 1149 1150 1151 1152 1153 1154 1155 1156 1157 1158 1159 1160 1161 0
49 -1141 1133 1134 1135 1136 1137 1138 1139 1140 1142 1143 1144 1145 1146 1147 1148 1149 1150 1151 1152 1153 1154 1155 1156 1157 1158 1159 1160 1161 0
49 -1142 1133 1134 1135 1136 1137 1138 1139 1140 1141 1143 1144 1145 1146 1147 1148 1149 1150 1151 1152 1153 1154 1155 1156 1157 1158 1159 1160 1161 0
49 -1143 1133 1134 1135 1136 1137 1138 1139 1140 1141 1142 1144 1145 1146 1147 1148 1149 1150 1151 1152 1153 1154 1155 1156 1157 1158 1159 1160 1161 0
49 -1144 1133 1134 1135 1136 1137 1138 1139 1140 1141 1142 1143 1145 1146 1147 1148 1149 1150 1151 1152 1153 1154 1155 1156 1157 1158 1159 1160 1161 0
49 -1145 1133 1134 1135 1136 1137 1138 1139 1140 1141 1142 1143 1144 1146 1147 1148 1149 1150 1151 1152 1153 1154 1155 1156 1157 1158 1159 1160 1161 0
49 -1146 1133 1134 1135 1136 1137 1138 1139 1140 1141 1142 1143 1144 1145 1147 1148 1149 1150 1151 1152 1153 1154 1155 1156 1157 1158 1159 1160 1161 0
49 -1147 1133 1134 1135 1136 1137 1138 1139 1140 1141 1142 1143 1144 1145 1146 1148 1149 1150 1151 1152 1153 1154 1155 1156 1157 1158 1159 1160 1161 0
49 -1148 1133 1134 1135 1136 1137 1138 1139 1140 1141 1142 1143 1144 1145 1146 1147 1149 1150 1151 1152 1153 1154 1155 1156 1157 1158 1159 1160 1161 0
49 -1149 1133 1134 1135 1136 1137 1138 1139 1140 1141 1142 1143 1144 1145 1146 1147 1148 1150 1151 1152 1153 1154 1155 1156 1157 1158 1159 1160 1161 0
49 -1150 1133 1134 1135 1136 1137 1138 1139 1140 1141 1142 1143 1144 1145 1146 1147 1148 1149 1151 1152 1153 1154 1155 1156 1157 1158 1159 1160 1161 0
49 -1151 1133 1134 1135 1136 1137 1138 1139 1140 1141 1142 1143 1144 1145 1146 1147 1148 1149 1150 1152 1153 1154 1155 1156 1157 1158 1159 1160 1161 0
49 -1152 1133 1134 1135 1136 1137 1138 1139 1140 1141 1142 1143 1144 1145 1146 1147 1148 1149 1150 1151 1153 1154 1155 1156 1157 1158 1159 1160 1161 0
49 -1153 1133 1134 1135 1136 1137 1138 1139 1140 1141 1142 1143 1144 1145 1146 1147 1148 1149 1150 1151 1152 1154 1155 1156 1157 1158 1159 1160 1161 0
49 -1154 1133 1134 1135 1136 1137 1138 1139 1140 1141 1142 1143 1144 1145 1146 1147 1148 1149 1150 1151 1152 1153 1155 1156 1157 1158 1159 1160 1161 0
49 -1155 1133 1134 1135 1136 1137 1138 1139 1140 1141 1142 1143 1144 1145 1146 1147 1148 1149 1150 1151 1152 1153 1154 1156 1157 1158 1159 1160 1161 0
49 -1156 1133 1134 1135 1136 1137 1138 1139 1140 1141 1142 1143 1144 1145 1146 1147 1148 1149 1150 1151 1152 1153 1154 1155 1157 1158 1159 1160 1161 0
49 -1157 1133 1134 1135 1136 1137 1138 1139 1140 1141 1142 1143 1144 1145 1146 1147 1148 1149 1150 1151 1152 1153 1154 1155 1156 1158 1159 1160 1161 0
49 -1158 1133 1134 1135 1136 1137 1138 1139 1140 1141 1142 1143 1144 1145 1146 1147 1148 1149 1150 1151 1152 1153 1154 1155 1156 1157 1159 1160 1161 0
49 -1159 1133 1134 1135 1136 1137 1138 1139 1140 1141 1142 1143 1144 1145 1146 1147 1148 1149 1150 1151 1152 1153 1154 1155 1156 1157 1158 1160 1161 0
49 -1160 1133 1134 1135 1136 1137 1138 1139 1140 1141 1142 1143 1144 1145 1146 1147 1148 1149 1150 1151 1152 1153 1154 1155 1156 1157 1158 1159 1161 0
49 -1161 1133 1134 1135 1136 1137 1138 1139 1140 1141 1142 1143 1144 1145 1146 1147 1148 1149 1150 1151 1152 1153 1154 1155 1156 1157 1158 1159 1160 0
-1162 1 0
-1162 39 0
-1 -39 1162 0
-1163 2 0
-1163 38 0
-2 -38 1163 0
-1164 3 0
-1164 37 0
-3 -37 1164 0
-1165 4 0
-1165 36 0
-4 -36 1165 0
-1166 5 0
-1166 35 0
-5 -35 1166 0
-1167 6 0
-1167 34 0
-6 -34 1167 0
-1168 7 0
-1168 33 0
-7 -33 1168 0
-1169 8 0
-1169 32 0
-8 -32 1169 0
-1170 9 0
-1170 31 0
-9 -31 1170 0
-1171 10 0
-1171 30 0
-10 -30 1171 0
-1172 11 0
-1172 29 0
-11 -29 1172 0
-1173 12 0
-1173 28 0
-12 -28 1173 0
-1174 13 0
-1174 27 0
-13 -27 1174 0
-1175 14 0
-1175 26 0
-14 -26 1175 0
-1176 15 0
-1176 25 0
-15 -25 1176 0
-1177 16 0
-1177 24 0
-16 -24 1177 0
-1178 17 0
-1178 23 0
-17 -23 1178 0
-1179 18 0
-1179 22 0
-18 -22 1179 0
-1180 19 0
-1180 21 0
-19 -21 1180 0
-1181 40 0
-1181 59 0
-40 -59 1181 0
-1182 41 0
-1182 58 0
-41 -58 1182 0
-1183 42 0
-1183 57 0
-42 -57 1183 0
-1184 43 0
-1184 56 0
-43 -56 1184 0
-1185 44 0
-1185 55 0
-44 -55 1185 0
-1186 45 0
-1186 54 0
-45 -54 1186 0
-1187 46 0
-1187 53 0
-46 -53 1187 0
-1188 47 0
-1188 52 0
-47 -52 1188 0
-1189 48 0
-1189 51 0
-48 -51 1189 0
-1190 49 0
-1190 50 0
-49 -50 1190 0
-20 1162 1163 1164 1165 1166 1167 1168 1169 1170 1171 1172 1173 1174 1175 1176 1177 1178 1179 1180 1181 1182 1183 1184 1185 1186 1187 1188 1189 1190 0
20 -1162 1163 1164 1165 1166 1167 1168 1169 1170 1171 1172 1173 1174 1175 1176 1177 1178 1179 1180 1181 1182 1183 1184 1185 1186 1187 1188 1189 1190 0
20 -1163 1162 1164 1165 1166 1167 1168 1169 1170 1171 1172 1173 1174 1175 1176 1177 1178 1179 1180 1181 1182 1183 1184 1185 1186 1187 1188 1189 1190 0
20 -1164 1162 1163 1165 1166 1167 1168 1169 1170 1171 1172 1173 1174 1175 1176 1177 1178 1179 1180 1181 1182 1183 1184 1185 1186 1187 1188 1189 1190 0
20 -1165 1162 1163 1164 1166 1167 1168 1169 1170 1171 1172 1173 1174 1175 1176 1177 1178 1179 1180 1181 1182 1183 1184 1185 1186 1187 1188 1189 1190 0
20 -1166 1162 1163 1164 1165 1167 1168 1169 1170 1171 1172 1173 1174 1175 1176 1177 1178 1179 1180 1181 1182 1183 1184 1185 1186 1187 1188 1189 1190 0
20 -1167 1162 1163 1164 1165 1166 1168 1169 1170 1171 1172 1173 1174 1175 1176 1177 1178 1179 1180 1181 1182 1183 1184 1185 1186 1187 1188 1189 1190 0
20 -1168 1162 1163 1164 1165 1166 1167 1169 1170 1171 1172 1173 1174 1175 1176 1177 1178 1179 1180 1181 1182 1183 1184 1185 1186 1187 1188 1189 1190 0
20 -1169 1162 1163 1164 1165 1166 1167 1168 1170 1171 1172 1173 1174 1175 1176 1177 1178 1179 1180 1181 1182 1183 1184 1185 1186 1187 1188 1189 1190 0
20 -1170 1162 1163 1164 1165 1166 1167 1168 1169 1171 1172 1173 1174 1175 1176 1177 1178 1179 1180 1181 1182 1183 1184 1185 1186 1187 1188 1189 1190 0
20 -1171 1162 1163 1164 1165 1166 1167 1168 1169 1170 1172 1173 1174 1175 1176 1177 1178 1179 1180 1181 1182 1183 1184 1185 1186 1187 1188 1189 1190 0
20 -1172 1162 1163 1164 1165 1166 1167 1168 1169 1170 1171 1173 1174 1175 1176 1177 1178 1179 1180 1181 1182 1183 1184 1185 1186 1187 1188 1189 1190 0
20 -1173 1162 1163 1164 1165 1166 1167 1168 1169 1170 1171 1172 1174 1175 1176 1177 1178 1179 1180 1181 1182 1183 1184 1185 1186 1187 1188 1189 1190 0
20 -1174 1162 1163 1164 1165 1166 1167 1168 1169 1170 1171 1172 1173 1175 1176 1177 1178 1179 1180 1181 1182 1183 1184 1185 1186 1187 1188 1189 1190 0
20 -1175 1162 1163 1164 1165 1166 1167 1168 1169 1170 1171 1172 1173 1174 1176 1177 1178 1179 1180 1181 1182 1183 1184 1185 1186 1187 1188 1189 1190 0
20 -1176 1162 1163 1164 1165 1166 1167 1168 1169 1170 1171 1172 1173 1174 1175 1177 1178 1179 1180 1181 1182 1183 1184 1185 1186 1187 1188 1189 1190 0
20 -1177 1162 1163 1164 1165 1166 1167 1168 1169 1170 1171 1172 1173 1174 1175 1176 1178 1179 1180 1181 1182 1183 1184 1185 1186 1187 1188 1189 1190 0
20 -1178 1162 1163 1164 1165 1166 1167 1168 1169 1170 1171 1172 1173 1174 1175 1176 1177 1179 1180 1181 1182 1183 1184 1185 1186 1187 1188 1189 1190 0
20 -1179 1162 1163 1164 1165 1166 1167 1168 1169 1170 1171 1172 1173 1174 1175 1176 1177 1178 1180 1181 1182 1183 1184 1185 1186 1187 1188 1189 1190 0
20 -1180 1162 1163 1164 1165 1166 1167 1168 1169 1170 1171 1172 1173 1174 1175 1176 1177 1178 1179 1181 1182 1183 1184 1185 1186 1187 1188 1189 1190 0
20 -1181 1162 1163 1164 1165 1166 1167 1168 1169 1170 1171 1172 1173 1174 1175 1176 1177 1178 1179 1180 1182 1183 1184 1185 1186 1187 1188 1189 1190 0
20 -1182 1162 1163 1164 1165 1166 1167 1168 1169 1170 1171 1172 1173 1174 1175 1176 1177 1178 1179 1180 1181 1183 1184 1185 1186 1187 1188 1189 1190 0
20 -1183 1162 1163 1164 1165 1166 1167 1168 1169 1170 1171 1172 1173 1174 1175 1176 1177 1178 1179 1180 1181 1182 1184 1185 1186 1187 1188 1189 1190 0
20 -1184 1162 1163 1164 1165 1166 1167 1168 1169 1170 1171 1172 1173 1174 1175 1176 1177 1178 1179 1180 1181 1182 1183 1185 1186 1187 1188 1189 1190 0
20 -1185 1162 1163 1164 1165 1166 1167 1168 1169 1170 1171 1172 1173 1174 1175 1176 1177 1178 1179 1180 1181 1182 1183 1184 1186 1187 1188 1189 1190 0
20 -1186 1162 1163 1164 1165 1166 1167 1168 1169 1170 1171 1172 1173 1174 1175 1176 1177 1178 1179 1180 1181 1182 1183 1184 1185 1187 1188 1189 1190 0
20 -1187 1162 1163 1164 1165 1166 1167 1168 1169 1170 1171 1172 1173 1174 1175 1176 1177 1178 1179 1180 1181 1182 1183 1184 1185 1186 1188 1189 1190 0
20 -1188 1162 1163 1164 1165 1166 1167 1168 1169 1170 1171 1172 1173 1174 1175 1176 1177 1178 1179 1180 1181 1182 1183 1184 1185 1186 1187 1189 1190 0
20 -1189 1162 1163 1164 1165 1166 1167 1168 1169 1170 1171 1172 1173 1174 1175 1176 1177 1178 1179 1180 1181 1182 1183 1184 1185 1186 1187 1188 1190 0
20 -1190 1162 1163 1164 1165 1166 1167 1168 1169 1170 1171 1172 1173 1174 1175 1176 1177 1178 1179 1180 1181 1182 1183 1184 1185 1186 1187 1188 1189 0
-1191 1 0
-1191 40 0
-1 -40 1191 0
-1192 2 0
-1192 39 0
-2 -39 1192 0
-1193 3 0
-1193 38 0
-3 -38 1193 0
-1194 4 0
-1194 37 0
-4 -37 1194 0
-1195 5 0
-1195 36 0
-5 -36 1195 0
-1196 6 0
-1196 35 0
-6 -35 1196 0
-1197 7 0
-1197 34 0
-7 -34 1197 0
-1198 8 0
-1198 33 0
-8 -33 1198 0
-1199 9 0
-1199 32 0
-9 -32 1199 0
-1200 10 0
-1200 31 0
-10 -31 1200 0
-1201 11 0
-1201 30 0
-11 -30 1201 0
-1202 12 0
-1202 29 0
-12 -29 1202 0
-1203 13 0
-1203 28 0
-13 -28 1203 0
-1204 14 0
-1204 27 0
-14 -27 1204 0
-1205 15 0
-1205 26 0
-15 -26 1205 0
-1206 16 0
-1206 25 0
-16 -25 1206 0
-1207 17 0
-1207 24 0
-17 -24 1207 0
-1208 18 0
-1208 23 0
-18 -23 1208 0
-1209 19 0
-1209 22 0
-19 -22 1209 0
-1210 20 0
-1210 21 0
-20 -21 1210 0
-1211 41 0
-1211 59 0
-41 -59 1211 0
-1212 42 0
-1212 58 0
-42 -58 1212 0
-1213 43 0
-1213 57 0
-43 -57 1213 0
-1214 44 0
-1214 56 0
-44 -56 1214 0
-1215 45 0
-1215 55 0
-45 -55 1215 0
-1216 46 0
-1216 54 0
-46 -54 1216 0
-1217 47 0
-1217 53 0
-47 -53 1217 0
-1218 48 0
-1218 52 0
-48 -52 1218 0
-1219 49 0
-1219 51 0
-49 -51 1219 0
-50 1191 1192 1193 1194 1195 1196 1197 1198 1199 1200 1201 1202 1203 1204 1205 1206 1207 1208 1209 1210 1211 1212 1213 1214 1215 1216 1217 1218 1219 0
50 -1191 1192 1193 1194 1195 1196 1197 1198 1199 1200 1201 1202 1203 1204 1205 1206 1207 1208 1209 1210 1211 1212 1213 1214 1215 1216 1217 1218 1219 0
50 -1192 1191 1193 1194 1195 1196 1197 1198 1199 1200 1201 1202 1203 1204 1205 1206 1207 1208 1209 1210 1211 1212 1213 1214 1215 1216 1217 1218 1219 0
50 -1193 1191 1192 1194 1195 1196 1197 1198 1199 1200 1201 1202 1203 1204 1205 1206 1207 1208 1209 1210 1211 1212 1213 1214 1215 1216 1217 1218 1219 0
50 -1194 1191 1192 1193 1195 1196 1197 1198 1199 1200 1201 1202 1203 1204 1205 1206 1207 1208 1209 1210 1211 1212 1213 1214 1215 1216 1217 1218 1219 0
50 -1195 1191 1192 1193 1194 1196 1197 1198 1199 1200 1201 1202 1203 1204 1205 1206 1207 1208 1209 1210 1211 1212 1213 1214 1215 1216 1217 1218 1219 0
50 -1196 1191 1192 1193 1194 1195 1197 1198 1199 1200 1201 1202 1203 1204 1205 1206 1207 1208 1209 1210 1211 1212 1213 1214 1215 1216 1217 1218 1219 0
50 -1197 1191 1192 1193 1194 1195 1196 1198 1199 1200 1201 1202 1203 1204 1205 1206 1207 1208 1209 1210 1211 1212 1213 1214 1215 1216 1217 1218 1219 0
50 -1198 1191 1192 1193 1194 1195 1196 1197 1199 1200 1201 1202 1203 1204 1205 1206 1207 1208 1209 1210 1211 1212 1213 1214 1215 1216 1217 1218 1219 0
50 -1199 1191 1192 1193 1194 1195 1196 1197 1198 1200 1201 1202 1203 1204 1205 1206 1207 1208 1209 1210 1211 1212 1213 1214 1215 1216 1217 1218 1219 0
50 -1200 1191 1192 1193 1194 1195 1196 1197 1198 1199 1201 1202 1203 1204 1205 1206 1207 1208 1209 1210 1211 1212 1213 1214 1215 1216 1217 1218 1219 0
50 -1201 1191 1192 1193 1194 1195 1196 1197 1198 1199 1200 1202 1203 1204 1205 1206 1207 1208 1209 1210 1211 1212 1213 1214 1215 1216 1217 1218 1219 0
50 -1202 1191 1192 1193 1194 1195 1196 1197 1198 1199 1200 1201 1203 1204 1205 1206 1207 1208 1209 1210 1211 1212 1213 1214 1215 1216 1217 1218 1219 0
50 -1203 1191 1192 1193 1194 1195 1196 1197 1198 1199 1200 1201 1202 1204 1205 1206 1207 1208 1209 1210 1211 1212 1213 1214 1215 1216 1217 1218 1219 0
50 -1204 1191 1192 1193 1194 1195 1196 1197 1198 1199 1200 1201 1202 1203 1205 1206 1207 1208 1209 1210 1211 1212 1213 1214 1215 1216 1217 1218 1219 0
50 -1205 1191 1192 1193 1194 1195 1196 1197 1198 1199 1200 1201 1202 1203 1204 1206 1207 1208 1209 1210 1211 1212 1213 1214 1215 1216 1217 1218 1219 0
50 -1206 1191 1192 1193 1194 1195 1196 1197 1198 1199 1200 1201 1202 1203 1204 1205 1207 1208 1209 1210 1211 1212 1213 1214 1215 1216 1217 1218 1219 0
50 -1207 1191 1192 1193 1194 1195 1196 1197 1198 1199 1200 1201 1202 1203 1204 1205 1206 1208 1209 1210 1211 1212 1213 1214 1215 1216 1217 1218 1219 0
50 -1208 1191 1192 1193 1194 1195 1196 1197 1198 1199 1200 1201 1202 1203 1204 1205 1206 1207 1209 1210 1211 1212 1213 1214 1215 1216 1217 1218 1219 0
50 -1209 1191 1192 1193 1194 1195 1196 1197 1198 1199 1200 1201 1202 1203 1204 1205 1206 1207 1208 1210 1211 1212 1213 1214 1215 1216 1217 1218 1219 0
50 -1210 1191 1192 1193 1194 1195 1196 1197 1198 1199 1200 1201 1202 1203 1204 1205 1206 1207 1208 1209 1211 1212 1213 1214 1215 1216 1217 1218 1219 0
50 -1211 1191 1192 1193 1194 1195 1196 1197 1198 1199 1200 1201 1202 1203 1204 1205 1206 1207 1208 1209 1210 1212 1213 1214 1215 1216 1217 1218 1219 0
50 -1212 1191 1192 1193 1194 1195 1196 1197 1198 1199 1200 1201 1202 1203 1204 1205 1206 1207 1208 1209 1210 1211 1213 1214 1215 1216 1217 1218 1219 0
50 -1213 1191 1192 1193 1194 1195 1196 1197 1198 1199 1200 1201 1202 1203 1204 1205 1206 1207 1208 1209 1210 1211 1212 1214 1215 1216 1217 1218 1219 0
50 -1214 1191 1192 1193 1194 1195 1196 1197 1198 1199 1200 1201 1202 1203 1204 1205 1206 1207 1208 1209 1210 1211 1212 1213 1215 1216 1217 1218 1219 0
50 -1215 1191 1192 1193 1194 1195 1196 1197 1198 1199 1200 1201 1202 1203 1204 1205 1206 1207 1208 1209 1210 1211 1212 1213 1214 1216 1217 1218 1219 0
50 -1216 1191 1192 1193 1194 1195 1196 1197 1198 1199 1200 1201 1202 1203 1204 1205 1206 1207 1208 1209 1210 1211 1212 1213 1214 1215 1217 1218 1219 0
50 -1217 1191 1192 1193 1194 1195 1196 1197 1198 1199 1200 1201 1202 1203 1204 1205 1206 1207 1208 1209 1210 1211 1212 1213 1214 1215 1216 1218 1219 0
50 -1218 1191 1192 1193 1194 1195 1196 1197 1198 1199 1200 1201 1202 1203 1204 1205 1206 1207 1208 1209 1210 1211 1212 1213 1214 1215 1216 1217 1219 0
50 -1219 1191 1192 1193 1194 1195 1196 1197 1198 1199 1200 1201 1202 1203 1204 1205 1206 1207 1208 1209 1210 1211 1212 1213 1214 1215 1216 1217 1218 0
-1220 1 0
-1220 41 0
-1 -41 1220 0
-1221 2 0
-1221 40 0
-2 -40 1221 0
-1222 3 0
-1222 39 0
-3 -39 1222 0
-1223 4 0
-1223 38 0
-4 -38 1223 0
-1224 5 0
-1224 37 0
-5 -37 1224 0
-1225 6 0
-1225 36 0
-6 -36 1225 0
-1226 7 0
-1226 35 0
-7 -35 1226 0
-1227 8 0
-1227 34 0
-8 -34 1227 0
-1228 9 0
-1228 33 0
-9 -33 1228 0
-1229 10 0
-1229 32 0
-10 -32 1229 0
-1230 11 0
-1230 31 0
-11 -31 1230 0
-1231 12 0
-1231 30 0
-12 -30 1231 0
-1232 13 0
-1232 29 0
-13 -29 1232 0
-1233 14 0
-1233 28 0
-14 -28 1233 0
-1234 15 0
-1234 27 0
-15 -27 1234 0
-1235 16 0
-1235 26 0
-16 -26 1235 0
-1236 17 0
-1236 25 0
-17 -25 1236 0
-1237 18 0
-1237 24 0
-18 -24 1237 0
-1238 19 0
-1238 23 0
-19 -23 1238 0
-1239 20 0
-1239 22 0
-20 -22 1239 0
-1240 42 0
-1240 59 0
-42 -59 1240 0
-1241 43 0
-1241 58 0
-43 -58 1241 0
-1242 44 0
-1242 57 0
-44 -57 1242 0
-1243 45 0
-1243 56 0
-45 -56 1243 0
-1244 46 0
-1244 55 0
-46 -55 1244 0
-1245 47 0
-1245 54 0
-47 -54 1245 0
-1246 48 0
-1246 53 0
-48 -53 1246 0
-1247 49 0
-1247 52 0
-49 -52 1247 0
-1248 50 0
-1248 51 0
-50 -51 1248 0
-21 1220 1221 1222 1223 1224 1225 1226 1227 1228 1229 1230 1231 1232 1233 1234 1235 1236 1237 1238 1239 1240 1241 1242 1243 1244 1245 1246 1247 1248 0
21 -1220 1221 1222 1223 1224 1225 1226 1227 1228 1229 1230 1231 1232 1233 1234 1235 1236 1237 1238 1239 1240 1241 1242 1243 1244 1245 1246 1247 1248 0
21 -1221 1220 1222 1223 1224 1225 1226 1227 1228 1229 1230 1231 1232 1233 1234 1235 1236 1237 1238 1239 1240 1241 1242 1243 1244 1245 1246 1247 1248 0
21 -1222 1220 1221 1223 1224 1225 1226 1227 1228 1229 1230 1231 1232 1233 1234 1235 1236 1237 1238 1239 1240 1241 1242 1243 1244 1245 1246 1247 1248 0
21 -1223 1220 1221 1222 1224 1225 1226 1227 1228 1229 1230 1231 1232 1233 1234 1235 1236 1237 1238 1239 1240 1241 1242 1243 1244 1245 1246 1247 1248 0
21 -1224 1220 1221 1222 1223 1225 1226 1227 1228 1229 1230 1231 1232 1233 1234 1235 1236 1237 1238 1239 1240 1241 1242 1243 1244 1245 1246 1247 1248 0
21 -1225 1220 1221 1222 1223 1224 1226 1227 1228 1229 1230 1231 1232 1233 1234 1235 1236 1237 1238 1239 1240 1241 1242 1243 1244 1245 1246 1247 1248 0
21 -1226 1220 1221 1222 1223 1224 1225 1227 1228 1229 1230 1231 1232 1233 1234 1235 1236 1237 1238 1239 1240 1241 1242 1243 1244 1245 1246 1247 1248 0
21 -1227 1220 1221 1222 1223 1224 1225 1226 1228 1229 1230 1231 1232 1233 1234 1235 1236 1237 1238 1239 1240 1241 1242 1243 1244 1245 1246 1247 1248 0
21 -1228 1220 1221 1222 1223 1224 1225 1226 1227 1229 1230 1231 1232 1233 1234 1235 1236 1237 1238 1239 1240 1241 1242 1243 1244 1245 1246 1247 1248 0
21 -1229 1220 1221 1222 1223 1224 1225 1226 1227 1228 1230 1231 1232 1233 1234 1235 1236 1237 1238 1239 1240 1241 1242 1243 1244 1245 1246 1247 1248 0
21 -1230 1220 1221 1222 1223 1224 1225 1226 1227 1228 1229 1231 1232 1233 1234 1235 1236 1237 1238 1239 1240 1241 1242 1243 1244 1245 1246 1247 1248 0
21 -1231 1220 1221 1222 1223 1224 1225 1226 1227 1228 1229 1230 1232 1233 1234 1235 1236 1237 1238 1239 1240 1241 1242 1243 1244 1245 1246 1247 1248 0
21 -1232 1220 1221 1222 1223 1224 1225 1226 1227 1228 1229 1230 1231 1233 1234 1235 1236 1237 1238 1239 1240 1241 1242 1243 1244 1245 1246 1247 1248 0
21 -1233 1220 1221 1222 1223 1224 1225 1226 1227 1228 1229 1230 1231 1232 1234 1235 1236 1237 1238 1239 1240 1241 1242 1243 1244 1245 1246 1247 1248 0
21 -1234 1220 1221 1222 1223 1224 1225 1226 1227 1228 1229 1230 1231 1232 1233 1235 1236 1237 1238 1239 1240 1241 1242 1243 1244 1245 1246 1247 1248 0
21 -1235 1220 1221 1222 1223 1224 1225 1226 1227 1228 1229 1230 1231 1232 1233 1234 1236 1237 1238 1239 1240 1241 1242 1243 1244 1245 1246 1247 1248 0
21 -1236 1220 1221 1222 1223 1224 1225 1226 1227 1228 1229 1230 1231 1232 1233 1234 1235 1237 1238 1239 1240 1241 1242 1243 1244 1245 1246 1247 1248 0
21 -1237 1220 1221 1222 1223 1224 1225 1226 1227 1228 1229 1230 1231 1232 1233 1234 1235 1236 1238 1239 1240 1241 1242 1243 1244 1245 1246 1247 1248 0
21 -1238 1220 1221 1222 1223 1224 1225 1226 1227 1228 1229 1230 1231 1232 1233 1234 1235 1236 1237 1239 1240 1241 1242 1243 1244 1245 1246 1247 1248 0
21 -1239 1220 1221 1222 1223 1224 1225 1226 1227 1228 1229 1230 1231 1232 1233 1234 1235 1236 1237 1238 1240 1241 1242 1243 1244 1245 1246 1247 1248 0
21 -1240 1220 1221 1222 1223 1224 1225 1226 1227 1228 1229 1230 1231 1232 1233 1234 1235 1236 1237 1238 1239 1241 1242 1243 1244 1245 1246 1247 1248 0
21 -1241 1220 1221 1222 1223 1224 1225 1226 1227 1228 1229 1230 1231 1232 1233 1234 1235 1236 1237 1238 1239 1240 1242 1243 1244 1245 1246 1247 1248 0
21 -1242 1220 1221 1222 1223 1224 1225 1226 1227 1228 1229 1230 1231 1232 1233 1234 1235 1236 1237 1238 1239 1240 1241 1243 1244 1245 1246 1247 1248 0
21 -1243 1220 1221 1222 1223 1224 1225 1226 1227 1228 1229 1230 1231 1232 1233 1234 1235 1236 1237 1238 1239 1240 1241 1242 1244 1245 1246 1247 1248 0
21 -1244 1220 1221 1222 1223 1224 1225 1226 1227 1228 1229 1230 1231 1232 1233 1234 1235 1236 1237 1238 1239 1240 1241 1242 1243 1245 1246 1247 1248 0
21 -1245 1220 1221 1222 1223 1224 1225 1226 1227 1228 1229 1230 1231 1232 1233 1234 1235 1236 1237 1238 1239 1240 1241 1242 1243 1244 1246 1247 1248 0
21 -1246 1220 1221 1222 1223 1224 1225 1226 1227 1228 1229 1230 1231 1232 1233 1234 1235 1236 1237 1238 1239 1240 1241 1242 1243 1244 1245 1247 1248 0
21 -1247 1220 1221 1222 1223 1224 1225 1226 1227 1228 1229 1230 1231 1232 1233 1234 1235 1236 1237 1238 1239 1240 1241 1242 1243 1244 1245 1246 1248 0
21 -1248 1220 1221 1222 1223 1224 1225 1226 1227 1228 1229 1230 1231 1232 1233 1234 1235 1236 1237 1238 1239 1240 1241 1242 1243 1244 1245 1246 1247 0
-1249 1 0
-1249 42 0
-1 -42 1249 0
-1250 2 0
-1250 41 0
-2 -41 1250 0
-1251 3 0
-1251 40 0
-3 -40 1251 0
-1252 4 0
-1252 39 0
-4 -39 1252 0
-1253 5 0
-1253 38 0
-5 -38 1253 0
-1254 6 0
-1254 37 0
-6 -37 1254 0
-1255 7 0
-1255 36 0
-7 -36 1255 0
-1256 8 0
-1256 35 0
-8 -35 1256 0
-1257 9 0
-1257 34 0
-9 -34 1257 0
-1258 10 0
-1258 33 0
-10 -33 1258 0
-1259 11 0
-1259 32 0
-11 -32 1259 0
-1260 12 0
-1260 31 0
-12 -31 1260 0
-1261 13 0
-1261 30 0
-13 -30 1261 0
-1262 14 0
-1262 29 0
-14 -29 1262 0
-1263 15 0
-1263 28 0
-15 -28 1263 0
-1264 16 0
-1264 27 0
-16 -27 1264 0
-1265 17 0
-1265 26 0
-17 -26 1265 0
-1266 18 0
-1266 25 0
-18 -25 1266 0
-1267 19 0
-1267 24 0
-19 -24 1267 0
-1268 20 0
-1268 23 0
-20 -23 1268 0
-1269 21 0
-1269 22 0
-21 -22 1269 0
-1270 43 0
-1270 59 0
-43 -59 1270 0
-1271 44 0
-1271 58 0
-44 -58 1271 0
-1272 45 0
-1272 57 0
-45 -57 1272 0
-1273 46 0
-1273 56 0
-46 -56 1273 0
-1274 47 0
-1274 55 0
-47 -55 1274 0
-1275 48 0
-1275 54 0
-48 -54 1275 0
-1276 49 0
-1276 53 0
-49 -53 1276 0
-1277 50 0
-1277 52 0
-50 -52 1277 0
-51 1249 1250 1251 1252 1253 1254 1255 1256 1257 1258 1259 1260 1261 1262 1263 1264 1265 1266 1267 1268 1269 1270 1271 1272 1273 1274 1275 1276 1277 0
51 -1249 1250 1251 1252 1253 1254 1255 1256 1257 1258 1259 1260 1261 1262 1263 1264 1265 1266 1267 1268 1269 1270 1271 1272 1273 1274 1275 1276 1277 0
51 -1250 1249 1251 1252 1253 1254 1255 1256 1257 1258 1259 1260 1261 1262 1263 1264 1265 1266 1267 1268 1269 1270 1271 1272 1273 1274 1275 1276 1277 0
51 -1251 1249 1250 1252 1253 1254 1255 1256 1257 1258 1259 1260 1261 1262 1263 1264 1265 1266 1267 1268 1269 1270 1271 1272 1273 1274 1275 1276 1277 0
51 -1252 1249 1250 1251 1253 1254 1255 1256 1257 1258 1259 1260 1261 1262 1263 1264 1265 1266 1267 1268 1269 1270 1271 1272 1273 1274 1275 1276 1277 0
51 -1253 1249 1250 1251 1252 1254 1255 1256 1257 1258 1259 1260 1261 1262 1263 1264 1265 1266 1267 1268 1269 1270 1271 1272 1273 1274 1275 1276 1277 0
51 -1254 1249 1250 1251 1252 1253 1255 1256 1257 1258 1259 1260 1261 1262 1263 1264 1265 1266 1267 1268 1269 1270 1271 1272 1273 1274 1275 1276 1277 0
51 -1255 1249 1250 1251 1252 1253 1254 1256 1257 1258 1259 1260 1261 1262 1263 1264 1265 1266 1267 1268 1269 1270 1271 1272 1273 1274 1275 1276 1277 0
51 -1256 1249 1250 1251 1252 1253 1254 1255 1257 1258 1259 1260 1261 1262 1263 1264 1265 1266 1267 1268 1269 1270 1271 1272 1273 1274 1275 1276 1277 0
51 -1257 1249 1250 1251 1252 1253 1254 1255 1256 1258 1259 1260 1261 1262 1263 1264 1265 1266 1267 1268 1269 1270 1271 1272 1273 1274 1275 1276 1277 0
51 -1258 1249 1250 1251 1252 1253 1254 1255 1256 1257 1259 1260 1261 1262 1263 1264 1265 1266 1267 1268 1269 1270 1271 1272 1273 1274 1275 1276 1277 0
51 -1259 1249 1250 1251 1252 1253 1254 1255 1256 1257 1258 1260 1261 1262 1263 1264 1265 1266 1267 1268 1269 1270 1271 1272 1273 1274 1275 1276 1277 0
51 -1260 1249 1250 1251 1252 1253 1254 1255 1256 1257 1258 1259 1261 1262 1263 1264 1265 1266 1267 1268 1269 1270 1271 1272 1273 1274 1275 1276 1277 0
51 -1261 1249 1250 1251 1252 1253 1254 1255 1256 1257 1258 1259 1260 1262 1263 1264 1265 1266 1267 1268 1269 1270 1271 1272 1273 1274 1275 1276 1277 0
51 -1262 1249 1250 1251 1252 1253 1254 1255 1256 1257 1258 1259 1260 1261 1263 1264 1265 1266 1267 1268 1269 1270 1271 1272 1273 1274 1275 1276 1277 0
51 -1263 1249 1250 1251 1252 1253 1254 1255 1256 1257 1258 1259 1260 1261 1262 1264 1265 1266 1267 1268 1269 1270 1271 1272 1273 1274 1275 1276 1277 0
51 -1264 1249 1250 1251 1252 1253 1254 1255 1256 1257 1258 1259 1260 1261 1262 1263 1265 1266 1267 1268 1269 1270 1271 1272 1273 1274 1275 1276 1277 0
51 -1265 1249 1250 1251 1252 1253 1254 1255 1256 1257 1258 1259 1260 1261 1262 1263 1264 1266 1267 1268 1269 1270 1271 1272 1273 1274 1275 1276 1277 0
51 -1266 1249 1250 1251 1252 1253 1254 1255 1256 1257 1258 1259 1260 1261 1262 1263 1264 1265 1267 1268 1269 1270 1271 1272 1273 1274 1275 1276 1277 0
51 -1267 1249 1250 1251 1252 1253 1254 1255 1256 1257 1258 1259 1260 1261 1262 1263 1264 1265 1266 1268 1269 1270 1271 1272 1273 1274 1275 1276 1277 0
51 -1268 1249 1250 1251 1252 1253 1254 1255 1256 1257 1258 1259 1260 1261 1262 1263 1264 1265 1266 1267 1269 1270 1271 1272 1273 1274 1275 1276 1277 0
51 -1269 1249 1250 1251 1252 1253 1254 1255 1256 1257 1258 1259 1260 1261 1262 1263 1264 1265 1266 1267 1268 1270 1271 1272 1273 1274 1275 1276 1277 0
51 -1270 1249 1250 1251 1252 1253 1254 1255 1256 1257 1258 1259 1260 1261 1262 1263 1264 1265 1266 1267 1268 1269 1271 1272 1273 1274 1275 1276 1277 0
51 -1271 1249 1250 1251 1252 1253 1254 1255 1256 1257 1258 1259 1260 1261 1262 1263 1264 1265 1266 1267 1268 1269 1270 1272 1273 1274 1275 1276 1277 0
51 -1272 1249 1250 1251 1252 1253 1254 1255 1256 1257 1258 1259 1260 1261 1262 1263 1264 1265 1266 1267 1268 1269 1270 1271 1273 1274 1275 1276 1277 0
51 -1273 1249 1250 1251 1252 1253 1254 1255 1256 1257 1258 1259 1260 1261 1262 1263 1264 1265 1266 1267 1268 1269 1270 1271 1272 1274 1275 1276 1277 0
51 -1274 1249 1250 1251 1252 1253 1254 1255 1256 1257 1258 1259 1260 1261 1262 1263 1264 1265 1266 1267 1268 1269 1270 1271 1272 1273 1275 1276 1277 0
51 -1275 1249 1250 1251 1252 1253 1254 1255 1256 1257 1258 1259 1260 1261 1262 1263 1264 1265 1266 1267 1268 1269 1270 1271 1272 1273 1274 1276 1277 0
51 -1276 1249 1250 1251 1252 1253 1254 1255 1256 1257 1258 1259 1260 1261 1262 1263 1264 1265 1266 1267 1268 1269 1270 1271 1272 1273 1274 1275 1277 0
51 -1277 1249 1250 1251 1252 1253 1254 1255 1256 1257 1258 1259 1260 1261 1262 1263 1264 1265 1266 1267 1268 1269 1270 1271 1272 1273 1274 1275 1276 0
-1278 1 0
-1278 43 0
-1 -43 1278 0
-1279 2 0
-1279 42 0
-2 -42 1279 0
-1280 3 0
-1280 41 0
-3 -41 1280 0
-1281 4 0
-1281 40 0
-4 -40 1281 0
-1282 5 0
-1282 39 0
-5 -39 1282 0
-1283 6 0
-1283 38 0
-6 -38 1283 0
-1284 7 0
-1284 37 0
-7 -37 1284 0
-1285 8 0
-1285 36 0
-8 -36 1285 0
-1286 9 0
-1286 35 0
-9 -35 1286 0
-1287 10 0
-1287 34 0
-10 -34 1287 0
-1288 11 0
-1288 33 0
-11 -33 1288 0
-1289 12 0
-1289 32 0
-12 -32 1289 0
-1290 13 0
-1290 31 0
-13 -31 1290 0
-1291 14 0
-1291 30 0
-14 -30 1291 0
-1292 15 0
-1292 29 0
-15 -29 1292 0
-1293 16 0
-1293 28 0
-16 -28 1293 0
-1294 17 0
-1294 27 0
-17 -27 1294 0
-1295 18 0
-1295 26 0
-18 -26 1295 0
-1296 19 0
-1296 25 0
-19 -25 1296 0
-1297 20 0
-1297 24 0
-20 -24 1297 0
-1298 21 0
-1298 23 0
-21 -23 1298 0
-1299 44 0
-1299 59 0
-44 -59 1299 0
-1300 45 0
-1300 58 0
-45 -58 1300 0
-1301 46 0
-1301 57 0
-46 -57 1301 0
-1302 47 0
-1302 56 0
-47 -56 1302 0
-1303 48 0
-1303 55 0
-48 -55 1303 0
-1304 49 0
-1304 54 0
-49 -54 1304 0
-1305 50 0
-1305 53 0
-50 -53 1305 0
-1306 51 0
-1306 52 0
-51 -52 1306 0
-22 1278 1279 1280 1281 1282 1283 1284 1285 1286 1287 1288 1289 1290 1291 1292 1293 1294 1295 1296 1297 1298 1299 1300 1301 1302 1303 1304 1305 1306 0
22 -1278 1279 1280 1281 1282 1283 1284 1285 1286 1287 1288 1289 1290 1291 1292 1293 1294 1295 1296 1297 1298 1299 1300 1301 1302 1303 1304 1305 1306 0
22 -1279 1278 1280 1281 1282 1283 1284 1285 1286 1287 1288 1289 1290 1291 1292 1293 1294 1295 1296 1297 1298 1299 1300 1301 1302 1303 1304 1305 1306 0
22 -1280 1278 1279 1281 1282 1283 1284 1285 1286 1287 1288 1289 1290 1291 1292 1293 1294 1295 1296 1297 1298 1299 1300 1301 1302 1303 1304 1305 1306 0
22 -1281 1278 1279 1280 1282 1283 1284 1285 1286 1287 1288 1289 1290 1291 1292 1293 1294 1295 1296 1297 1298 1299 1300 1301 1302 1303 1304 1305 1306 0
22 -1282 1278 1279 1280 1281 1283 1284 1285 1286 1287 1288 1289 1290 1291 1292 1293 1294 1295 1296 1297 1298 1299 1300 1301 1302 1303 1304 1305 1306 0
22 -1283 1278 1279 1280 1281 1282 1284 1285 1286 1287 1288 1289 1290 1291 1292 1293 1294 1295 1296 1297 1298 1299 1300 1301 1302 1303 1304 1305 1306 0
22 -1284 1278 1279 1280 1281 1282 1283 1285 1286 1287 1288 1289 1290 1291 1292 1293 1294 1295 1296 1297 1298 1299 1300 1301 1302 1303 1304 1305 1306 0
22 -1285 1278 1279 1280 1281 1282 1283 1284 1286 1287 1288 1289 1290 1291 1292 1293 1294 1295 1296 1297 1298 1299 1300 1301 1302 1303 1304 1305 1306 0
22 -1286 1278 1279 1280 1281 1282 1283 1284 1285 1287 1288 1289 1290 1291 1292 1293 1294 1295 1296 1297 1298 1299 1300 1301 1302 1303 1304 1305 1306 0
22 -1287 1278 1279 1280 1281 1282 1283 1284 1285 1286 1288 1289 1290 1291 1292 1293 1294 1295 1296 1297 1298 1299 1300 1301 1302 1303 1304 1305 1306 0
22 -1288 1278 1279 1280 1281 1282 1283 1284 1285 1286 1287 1289 1290 1291 1292 1293 1294 1295 1296 1297 1298 1299 1300 1301 1302 1303 1304 1305 1306 0
22 -1289 1278 1279 1280 1281 1282 1283 1284 1285 1286 1287 1288 1290 1291 1292 1293 1294 1295 1296 1297 1298 1299 1300 1301 1302 1303 1304 1305 1306 0
22 -1290 1278 1279 1280 1281 1282 1283 1284 1285 1286 1287 1288 1289 1291 1292 1293 1294 1295 1296 1297 1298 1299 1300 1301 1302 1303 1304 1305 1306 0
22 -1291 1278 1279 1280 1281 1282 1283 1284 1285 1286 1287 1288 1289 1290 1292 1293 1294 1295 1296 1297 1298 1299 1300 1301 1302 1303 1304 1305 1306 0
22 -1292 1278 1279 1280 1281 1282 1283 1284 1285 1286 1287 1288 1289 1290 1291 1293 1294 1295 1296 1297 1298 1299 1300 1301 1302 1303 1304 1305 1306 0
22 -1293 1278 1279 1280 1281 1282 1283 1284 1285 1286 1287 1288 1289 1290 1291 1292 1294 1295 1296 1297 1298 1299 1300 1301 1302 1303 1304 1305 1306 0
22 -1294 1278 1279 1280 1281 1282 1283 1284 1285 1286 1287 1288 1289 1290 1291 1292 1293 1295 1296 1297 1298 1299 1300 1301 1302 1303 1304 1305 1306 0
22 -1295 1278 1279 1280 1281 1282 1283 1284 1285 1286 1287 1288 1289 1290 1291 1292 1293 1294 1296 1297 1298 1299 1300 1301 1302 1303 1304 1305 1306 0
22 -1296 1278 1279 1280 1281 1282 1283 1284 1285 1286 1287 1288 1289 1290 1291 1292 1293 1294 1295 1297 1298 1299 1300 1301 1302 1303 1304 1305 1306 0
22 -1297 1278 1279 1280 1281 1282 1283 1284 1285 1286 1287 1288 1289 1290 1291 1292 1293 1294 1295 1296 1298 1299 1300 1301 1302 1303 1304 1305 1306 0
22 -1298 1278 1279 1280 1281 1282 1283 1284 1285 1286 1287 1288 1289 1290 1291 1292 1293 1294 1295 1296 1297 1299 1300 1301 1302 1303 1304 1305 1306 0
22 -1299 1278 1279 1280 1281 1282 1283 1284 1285 1286 1287 1288 1289 1290 1291 1292 1293 1294 1295 1296 1297 1298 1300 1301 1302 1303 1304 1305 1306 0
22 -1300 1278 1279 1280 1281 1282 1283 1284 1285 1286 1287 1288 1289 1290 1291 1292 1293 1294 1295 1296 1297 1298 1299 1301 1302 1303 1304 1305 1306 0
22 -1301 1278 1279 1280 1281 1282 1283 1284 1285 1286 1287 1288 1289 1290 1291 1292 1293 1294 1295 1296 1297 1298 1299 1300 1302 1303 1304 1305 1306 0
22 -1302 1278 1279 1280 1281 1282 1283 1284 1285 1286 1287 1288 1289 1290 1291 1292 1293 1294 1295 1296 1297 1298 1299 1300 1301 1303 1304 1305 1306 0
22 -1303 1278 1279 1280 1281 1282 1283 1284 1285 1286 1287 1288 1289 1290 1291 1292 1293 1294 1295 1296 1297 1298 1299 1300 1301 1302 1304 1305 1306 0
22 -1304 1278 1279 1280 1281 1282 1283 1284 1285 1286 1287 1288 1289 1290 1291 1292 1293 1294 1295 1296 1297 1298 1299 1300 1301 1302 1303 1305 1306 0
22 -1305 1278 1279 1280 1281 1282 1283 1284 1285 1286 1287 1288 1289 1290 1291 1292 1293 1294 1295 1296 1297 1298 1299 1300 1301 1302 1303 1304 1306 0
22 -1306 1278 1279 1280 1281 1282 1283 1284 1285 1286 1287 1288 1289 1290 1291 1292 1293 1294 1295 1296 1297 1298 1299 1300 1301 1302 1303 1304 1305 0
-1307 1 0
-1307 44 0
-1 -44 1307 0
-1308 2 0
-1308 43 0
-2 -43 1308 0
-1309 3 0
-1309 42 0
-3 -42 1309 0
-1310 4 0
-1310 41 0
-4 -41 1310 0
-1311 5 0
-1311 40 0
-5 -40 1311 0
-1312 6 0
-1312 39 0
-6 -39 1312 0
-1313 7 0
-1313 38 0
-7 -38 1313 0
-1314 8 0
-1314 37 0
-8 -37 1314 0
-1315 9 0
-1315 36 0
-9 -36 1315 0
-1316 10 0
-1316 35 0
-10 -35 1316 0
-1317 11 0
-1317 34 0
-11 -34 1317 0
-1318 12 0
-1318 33 0
-12 -33 1318 0
-1319 13 0
-1319 32 0
-13 -32 1319 0
-1320 14 0
-1320 31 0
-14 -31 1320 0
-1321 15 0
-1321 30 0
-15 -30 1321 0
-1322 16 0
-1322 29 0
-16 -29 1322 0
-1323 17 0
-1323 28 0
-17 -28 1323 0
-1324 18 0
-1324 27 0
-18 -27 1324 0
-1325 19 0
-1325 26 0
-19 -26 1325 0
-1326 20 0
-1326 25 0
-20 -25 1326 0
-1327 21 0
-1327 24 0
-21 -24 1327 0
-1328 22 0
-1328 23 0
-22 -23 1328 0
-1329 45 0
-1329 59 0
-45 -59 1329 0
-1330 46 0
-1330 58 0
-46 -58 1330 0
-1331 47 0
-1331 57 0
-47 -57 1331 0
-1332 48 0
-1332 56 0
-48 -56 1332 0
-1333 49 0
-1333 55 0
-49 -55 1333 0
-1334 50 0
-1334 54 0
-50 -54 1334 0
-1335 51 0
-1335 53 0
-51 -53 1335 0
-52 1307 1308 1309 1310 1311 1312 1313 1314 1315 1316 1317 1318 1319 1320 1321 1322 1323 1324 1325 1326 1327 1328 1329 1330 1331 1332 1333 1334 1335 0
52 -1307 1308 1309 1310 1311 1312 1313 1314 1315 1316 1317 1318 1319 1320 1321 1322 1323 1324 1325 1326 1327 1328 1329 1330 1331 1332 1333 1334 1335 0
52 -1308 1307 1309 1310 1311 1312 1313 1314 1315 1316 1317 1318 1319 1320 1321 1322 1323 1324 1325 1326 1327 1328 1329 1330 1331 1332 1333 1334 1335 0
52 -1309 1307 1308 1310 1311 1312 1313 1314 1315 1316 1317 1318 1319 1320 1321 1322 1323 1324 1325 1326 1327 1328 1329 1330 1331 1332 1333 1334 1335 0
52 -1310 1307 1308 1309 1311 1312 1313 1314 1315 1316 1317 1318 1319 1320 1321 1322 1323 1324 1325 1326 1327 1328 1329 1330 1331 1332 1333 1334 1335 0
52 -1311 1307 1308 1309 1310 1312 1313 1314 1315 1316 1317 1318 1319 1320 1321 1322 1323 1324 1325 1326 1327 1328 1329 1330 1331 1332 1333 1334 1335 0
52 -1312 1307 1308 1309 1310 1311 1313 1314 1315 1316 1317 1318 1319 1320 1321 1322 1323 1324 1325 1326 1327 1328 1329 1330 1331 1332 1333 1334 1335 0
52 -1313 1307 1308 1309 1310 1311 1312 1314 1315 1316 1317 1318 1319 1320 1321 1322 1323 1324 1325 1326 1327 1328 1329 1330 1331 1332 1333 1334 1335 0
52 -1314 1307 1308 1309 1310 1311 1312 1313 1315 1316 1317 1318 1319 1320 1321 1322 1323 1324 1325 1326 1327 1328 1329 1330 1331 1332 1333 1334 1335 0
52 -1315 1307 1308 1309 1310 1311 1312 1313 1314 1316 1317 1318 1319 1320 1321 1322 1323 1324 1325 1326 1327 1328 1329 1330 1331 1332 1333 1334 1335 0
52 -1316 1307 1308 1309 1310 1311 1312 1313 1314 1315 1317 1318 1319 1320 1321 1322 1323 1324 1325 1326 1327 1328 1329 1330 1331 1332 1333 1334 1335 0
52 -1317 1307 1308 1309 1310 1311 1312 1313 1314 1315 1316 1318 1319 1320 1321 1322 1323 1324 1325 1326 1327 1328 1329 1330 1331 1332 1333 1334 1335 0
52 -1318 1307 1308 1309 1310 1311 1312 1313 1314 1315 1316 1317 1319 1320 1321 1322 1323 1324 1325 1326 1327 1328 1329 1330 1331 1332 1333 1334 1335 0
52 -1319 1307 1308 1309 1310 1311 1312 1313 1314 1315 1316 1317 1318 1320 1321 1322 1323 1324 1325 1326 1327 1328 1329 1330 1331 1332 1333 1334 1335 0
52 -1320 1307 1308 1309 1310 1311 1312 1313 1314 1315 1316 1317 1318 1319 1321 1322 1323 1324 1325 1326 1327 1328 1329 1330 1331 1332 1333 1334 1335 0
52 -1321 1307 1308 1309 1310 1311 1312 1313 1314 1315 1316 1317 1318 1319 1320 1322 1323 1324 1325 1326 1327 1328 1329 1330 1331 1332 1333 1334 1335 0
52 -1322 1307 1308 1309 1310 1311 1312 1313 1314 1315 1316 1317 1318 1319 1320 1321 1323 1324 1325 1326 1327 1328 1329 1330 1331 1332 1333 1334 1335 0
52 -1323 1307 1308 1309 1310 1311 1312 1313 1314 1315 1316 1317 1318 1319 1320 1321 1322 1324 1325 1326 1327 1328 1329 1330 1331 1332 1333 1334 1335 0
52 -1324 1307 1308 1309 1310 1311 1312 1313 1314 1315 1316 1317 1318 1319 1320 1321 1322 1323 1325 1326 1327 1328 1329 1330 1331 1332 1333 1334 1335 0
52 -1325 1307 1308 1309 1310 1311 1312 1313 1314 1315 1316 1317 1318 1319 1320 1321 1322 1323 1324 1326 1327 1328 1329 1330 1331 1332 1333 1334 1335 0
52 -1326 1307 1308 1309 1310 1311 1312 1313 1314 1315 1316 1317 1318 1319 1320 1321 1322 1323 1324 1325 1327 1328 1329 1330 1331 1332 1333 1334 1335 0
52 -1327 1307 1308 1309 1310 1311 1312 1313 1314 1315 1316 1317 1318 1319 1320 1321 1322 1323 1324 1325 1326 1328 1329 1330 1331 1332 1333 1334 1335 0
52 -1328 1307 1308 1309 1310 1311 1312 1313 1314 1315 1316 1317 1318 1319 1320 1321 1322 1323 1324 1325 1326 1327 1329 1330 1331 1332 1333 1334 1335 0
52 -1329 1307 1308 1309 1310 1311 1312 1313 1314 1315 1316 1317 1318 1319 1320 1321 1322 1323 1324 1325 1326 1327 1328 1330 1331 1332 1333 1334 1335 0
52 -1330 1307 1308 1309 1310 1311 1312 1313 1314 1315 1316 1317 1318 1319 1320 1321 1322 1323 1324 1325 1326 1327 1328 1329 1331 1332 1333 1334 1335 0
52 -1331 1307 1308 1309 1310 1311 1312 1313 1314 1315 1316 1317 1318 1319 1320 1321 1322 1323 1324 1325 1326 1327 1328 1329 1330 1332 1333 1334 1335 0
52 -1332 1307 1308 1309 1310 1311 1312 1313 1314 1315 1316 1317 1318 1319 1320 1321 1322 1323 1324 1325 1326 1327 1328 1329 1330 1331 1333 1334 1335 0
52 -1333 1307 1308 1309 1310 1311 1312 1313 1314 1315 1316 1317 1318 1319 1320 1321 1322 1323 1324 1325 1326 1327 1328 1329 1330 1331 1332 1334 1335 0
52 -1334 1307 1308 1309 1310 1311 1312 1313 1314 1315 1316 1317 1318 1319 1320 1321 1322 1323 1324 1325 1326 1327 1328 1329 1330 1331 1332 1333 1335 0
52 -1335 1307 1308 1309 1310 1311 1312 1313 1314 1315 1316 1317 1318 1319 1320 1321 1322 1323 1324 1325 1326 1327 1328 1329 1330 1331 1332 1333 1334 0
-1336 1 0
-1336 45 0
-1 -45 1336 0
-1337 2 0
-1337 44 0
-2 -44 1337 0
-1338 3 0
-1338 43 0
-3 -43 1338 0
-1339 4 0
-1339 42 0
-4 -42 1339 0
-1340 5 0
-1340 41 0
-5 -41 1340 0
-1341 6 0
-1341 40 0
-6 -40 1341 0
-1342 7 0
-1342 39 0
-7 -39 1342 0
-1343 8 0
-1343 38 0
-8 -38 1343 0
-1344 9 0
-1344 37 0
-9 -37 1344 0
-1345 10 0
-1345 36 0
-10 -36 1345 0
-1346 11 0
-1346 35 0
-11 -35 1346 0
-1347 12 0
-1347 34 0
-12 -34 1347 0
-1348 13 0
-1348 33 0
-13 -33 1348 0
-1349 14 0
-1349 32 0
-14 -32 1349 0
-1350 15 0
-1350 31 0
-15 -31 1350 0
-1351 16 0
-1351 30 0
-16 -30 1351 0
-1352 17 0
-1352 29 0
-17 -29 1352 0
-1353 18 0
-1353 28 0
-18 -28 1353 0
-1354 19 0
-1354 27 0
-19 -27 1354 0
-1355 20 0
-1355 26 0
-20 -26 1355 0
-1356 21 0
-1356 25 0
-21 -25 1356 0
-1357 22 0
-1357 24 0
-22 -24 1357 0
-1358 46 0
-1358 59 0
-46 -59 1358 0
-1359 47 0
-1359 58 0
-47 -58 1359 0
-1360 48 0
-1360 57 0
-48 -57 1360 0
-1361 49 0
-1361 56 0
-49 -56 1361 0
-1362 50 0
-1362 55 0
-50 -55 1362 0
-1363 51 0
-1363 54 0
-51 -54 1363 0
-1364 52 0
-1364 53 0
-52 -53 1364 0
-23 1336 1337 1338 1339 1340 1341 1342 1343 1344 1345 1346 1347 1348 1349 1350 1351 1352 1353 1354 1355 1356 1357 1358 1359 1360 1361 1362 1363 1364 0
23 -1336 1337 1338 1339 1340 1341 1342 1343 1344 1345 1346 1347 1348 1349 1350 1351 1352 1353 1354 1355 1356 1357 1358 1359 1360 1361 1362 1363 1364 0
23 -1337 1336 1338 1339 1340 1341 1342 1343 1344 1345 1346 1347 1348 1349 1350 1351 1352 1353 1354 1355 1356 1357 1358 1359 1360 1361 1362 1363 1364 0
23 -1338 1336 1337 1339 1340 1341 1342 1343 1344 1345 1346 1347 1348 1349 1350 1351 1352 1353 1354 1355 1356 1357 1358 1359 1360 1361 1362 1363 1364 0
23 -1339 1336 1337 1338 1340 1341 1342 1343 1344 1345 1346 1347 1348 1349 1350 1351 1352 1353 1354 1355 1356 1357 1358 1359 1360 1361 1362 1363 1364 0
23 -1340 1336 1337 1338 1339 1341 1342 1343 1344 1345 1346 1347 1348 1349 1350 1351 1352 1353 1354 1355 1356 1357 1358 1359 1360 1361 1362 1363 1364 0
23 -1341 1336 1337 1338 1339 1340 1342 1343 1344 1345 1346 1347 1348 1349 1350 1351 1352 1353 1354 1355 1356 1357 1358 1359 1360 1361 1362 1363 1364 0
23 -1342 1336 1337 1338 1339 1340 1341 1343 1344 1345 1346 1347 1348 1349 1350 1351 1352 1353 1354 1355 1356 1357 1358 1359 1360 1361 1362 1363 1364 0
23 -1343 1336 1337 1338 1339 1340 1341 1342 1344 1345 1346 1347 1348 1349 1350 1351 1352 1353 1354 1355 1356 1357 1358 1359 1360 1361 1362 1363 1364 0
23 -1344 1336 1337 1338 1339 1340 1341 1342 1343 1345 1346 1347 1348 1349 1350 1351 1352 1353 1354 1355 1356 1357 1358 1359 1360 1361 1362 1363 1364 0
23 -1345 1336 1337 1338 1339 1340 1341 1342 1343 1344 1346 1347 1348 1349 1350 1351 1352 1353 1354 1355 1356 1357 1358 1359 1360 1361 1362 1363 1364 0
23 -1346 1336 1337 1338 1339 1340 1341 1342 1343 1344 1345 1347 1348 1349 1350 1351 1352 1353 1354 1355 1356 1357 1358 1359 1360 1361 1362 1363 1364 0
23 -1347 1336 1337 1338 1339 1340 1341 1342 1343 1344 1345 1346 1348 1349 1350 1351 1352 1353 1354 1355 1356 1357 1358 1359 1360 1361 1362 1363 1364 0
23 -1348 1336 1337 1338 1339 1340 1341 1342 1343 1344 1345 1346 1347 1349 1350 1351 1352 1353 1354 1355 1356 1357 1358 1359 1360 1361 1362 1363 1364 0
23 -1349 1336 1337 1338 1339 1340 1341 1342 1343 1344 1345 1346 1347 1348 1350 1351 1352 1353 1354 1355 1356 1357 1358 1359 1360 1361 1362 1363 1364 0
23 -1350 1336 1337 1338 1339 1340 1341 1342 1343 1344 1345 1346 1347 1348 1349 1351 1352 1353 1354 1355 1356 1357 1358 1359 1360 1361 1362 1363 1364 0
23 -1351 1336 1337 1338 1339 1340 1341 1342 1343 1344 1345 1346 1347 1348 1349 1350 1352 1353 1354 1355 1356 1357 1358 1359 1360 1361 1362 1363 1364 0
23 -1352 1336 1337 1338 1339 1340 1341 1342 1343 1344 1345 1346 1347 1348 1349 1350 1351 1353 1354 1355 1356 1357 1358 1359 1360 1361 1362 1363 1364 0
23 -1353 1336 1337 1338 1339 1340 1341 1342 1343 1344 1345 1346 1347 1348 1349 1350 1351 1352 1354 1355 1356 1357 1358 1359 1360 1361 1362 1363 1364 0
23 -1354 1336 1337 1338 1339 1340 1341 1342 1343 1344 1345 1346 1347 1348 1349 1350 1351 1352 1353 1355 1356 1357 1358 1359 1360 1361 1362 1363 1364 0
23 -1355 1336 1337 1338 1339 1340 1341 1342 1343 1344 1345 1346 1347 1348 1349 1350 1351 1352 1353 1354 1356 1357 1358 1359 1360 1361 1362 1363 1364 0
23 -1356 1336 1337 1338 1339 1340 1341 1342 1343 1344 1345 1346 1347 1348 1349 1350 1351 1352 1353 1354 1355 1357 1358 1359 1360 1361 1362 1363 1364 0
23 -1357 1336 1337 1338 1339 1340 1341 1342 1343 1344 1345 1346 1347 1348 1349 1350 1351 1352 1353 1354 1355 1356 1358 1359 1360 1361 1362 1363 1364 0
23 -1358 1336 1337 1338 1339 1340 1341 1342 1343 1344 1345 1346 1347 1348 1349 1350 1351 1352 1353 1354 1355 1356 1357 1359 1360 1361 1362 1363 1364 0
23 -1359 1336 1337 1338 1339 1340 1341 1342 1343 1344 1345 1346 1347 1348 1349 1350 1351 1352 1353 1354 1355 1356 1357 1358 1360 1361 1362 1363 1364 0
23 -1360 1336 1337 1338 1339 1340 1341 1342 1343 1344 1345 1346 1347 1348 1349 1350 1351 1352 1353 1354 1355 1356 1357 1358 1359 1361 1362 1363 1364 0
23 -1361 1336 1337 1338 1339 1340 1341 1342 1343 1344 1345 1346 1347 1348 1349 1350 1351 1352 1353 1354 1355 1356 1357 1358 1359 1360 1362 1363 1364 0
23 -1362 1336 1337 1338 1339 1340 1341 1342 1343 1344 1345 1346 1347 1348 1349 1350 1351 1352 1353 1354 1355 1356 1357 1358 1359 1360 1361 1363 1364 0
23 -1363 1336 1337 1338 1339 1340 1341 1342 1343 1344 1345 1346 1347 1348 1349 1350 1351 1352 1353 1354 1355 1356 1357 1358 1359 1360 1361 1362 1364 0
23 -1364 1336 1337 1338 1339 1340 1341 1342 1343 1344 1345 1346 1347 1348 1349 1350 1351 1352 1353 1354 1355 1356 1357 1358 1359 1360 1361 1362 1363 0
-1365 1 0
-1365 46 0
-1 -46 1365 0
-1366 2 0
-1366 45 0
-2 -45 1366 0
-1367 3 0
-1367 44 0
-3 -44 1367 0
-1368 4 0
-1368 43 0
-4 -43 1368 0
-1369 5 0
-1369 42 0
-5 -42 1369 0
-1370 6 0
-1370 41 0
-6 -41 1370 0
-1371 7 0
-1371 40 0
-7 -40 1371 0
-1372 8 0
-1372 39 0
-8 -39 1372 0
-1373 9 0
-1373 38 0
-9 -38 1373 0
-1374 10 0
-1374 37 0
-10 -37 1374 0
-1375 11 0
-1375 36 0
-11 -36 1375 0
-1376 12 0
-1376 35 0
-12 -35 1376 0
-1377 13 0
-1377 34 0
-13 -34 1377 0
-1378 14 0
-1378 33 0
-14 -33 1378 0
-1379 15 0
-1379 32 0
-15 -32 1379 0
-1380 16 0
-1380 31 0
-16 -31 1380 0
-1381 17 0
-1381 30 0
-17 -30 1381 0
-1382 18 0
-1382 29 0
-18 -29 1382 0
-1383 19 0
-1383 28 0
-19 -28 1383 0
-1384 20 0
-1384 27 0
-20 -27 1384 0
-1385 21 0
-1385 26 0
-21 -26 1385 0
-1386 22 0
-1386 25 0
-22 -25 1386 0
-1387 23 0
-1387 24 0
-23 -24 1387 0
-1388 47 0
-1388 59 0
-47 -59 1388 0
-1389 48 0
-1389 58 0
-48 -58 1389 0
-1390 49 0
-1390 57 0
-49 -57 1390 0
-1391 50 0
-1391 56 0
-50 -56 1391 0
-1392 51 0
-1392 55 0
-51 -55 1392 0
-1393 52 0
-1393 54 0
-52 -54 1393 0
-53 1365 1366 1367 1368 1369 1370 1371 1372 1373 1374 1375 1376 1377 1378 1379 1380 1381 1382 1383 1384 1385 1386 1387 1388 1389 1390 1391 1392 1393 0
53 -1365 1366 1367 1368 1369 1370 1371 1372 1373 1374 1375 1376 1377 1378 1379 1380 1381 1382 1383 1384 1385 1386 1387 1388 1389 1390 1391 1392 1393 0
53 -1366 1365 1367 1368 1369 1370 1371 1372 1373 1374 1375 1376 1377 1378 1379 1380 1381 1382 1383 1384 1385 1386 1387 1388 1389 1390 1391 1392 1393 0
53 -1367 1365 1366 1368 1369 1370 1371 1372 1373 1374 1375 1376 1377 1378 1379 1380 1381 1382 1383 1384 1385 1386 1387 1388 1389 1390 1391 1392 1393 0
53 -1368 1365 1366 1367 1369 1370 1371 1372 1373 1374 1375 1376 1377 1378 1379 1380 1381 1382 1383 1384 1385 1386 1387 1388 1389 1390 1391 1392 1393 0
53 -1369 1365 1366 1367 1368 1370 1371 1372 1373 1374 1375 1376 1377 1378 1379 1380 1381 1382 1383 1384 1385 1386 1387 1388 1389 1390 1391 1392 1393 0
53 -1370 1365 1366 1367 1368 1369 1371 1372 1373 1374 1375 1376 1377 1378 1379 1380 1381 1382 1383 1384 1385 1386 1387 1388 1389 1390 1391 1392 1393 0
53 -1371 1365 1366 1367 1368 1369 1370 1372 1373 1374 1375 1376 1377 1378 1379 1380 1381 1382 1383 1384 1385 1386 1387 1388 1389 1390 1391 1392 1393 0
53 -1372 1365 1366 1367 1368 1369 1370 1371 1373 1374 1375 1376 1377 1378 1379 1380 1381 1382 1383 1384 1385 1386 1387 1388 1389 1390 1391 1392 1393 0
53 -1373 1365 1366 1367 1368 1369 1370 1371 1372 1374 1375 1376 1377 1378 1379 1380 1381 1382 1383 1384 1385 1386 1387 1388 1389 1390 1391 1392 1393 0
53 -1374 1365 1366 1367 1368 1369 1370 1371 1372 1373 1375 1376 1377 1378 1379 1380 1381 1382 1383 1384 1385 1386 1387 1388 1389 1390 1391 1392 1393 0
53 -1375 1365 1366 1367 1368 1369 1370 1371 1372 1373 1374 1376 1377 1378 1379 1380 1381 1382 1383 1384 1385 1386 1387 1388 1389 1390 1391 1392 1393 0
53 -1376 1365 1366 1367 1368 1369 1370 1371 1372 1373 1374 1375 1377 1378 1379 1380 1381 1382 1383 1384 1385 1386 1387 1388 1389 1390 1391 1392 1393 0
53 -1377 1365 1366 1367 1368 1369 1370 1371 1372 1373 1374 1375 1376 1378 1379 1380 1381 1382 1383 1384 1385 1386 1387 1388 1389 1390 1391 1392 1393 0
53 -1378 1365 1366 1367 1368 1369 1370 1371 1372 1373 1374 1375 1376 1377 1379 1380 1381 1382 1383 1384 1385 1386 1387 1388 1389 1390 1391 1392 1393 0
53 -1379 1365 1366 1367 1368 1369 1370 1371 1372 1373 1374 1375 1376 1377 1378 1380 1381 1382 1383 1384 1385 1386 1387 1388 1389 1390 1391 1392 1393 0
53 -1380 1365 1366 1367 1368 1369 1370 1371 1372 1373 1374 1375 1376 1377 1378 1379 1381 1382 1383 1384 1385 1386 1387 1388 1389 1390 1391 1392 1393 0
53 -1381 1365 1366 1367 1368 1369 1370 1371 1372 1373 1374 1375 1376 1377 1378 1379 1380 1382 1383 1384 1385 1386 1387 1388 1389 1390 1391 1392 1393 0
53 -1382 1365 1366 1367 1368 1369 1370 1371 1372 1373 1374 1375 1376 1377 1378 1379 1380 1381 1383 1384 1385 1386 1387 1388 1389 1390 1391 1392 1393 0
53 -1383 1365 1366 1367 1368 1369 1370 1371 1372 1373 1374 1375 1376 1377 1378 1379 1380 1381 1382 1384 1385 1386 1387 1388 1389 1390 1391 1392 1393 0
53 -1384 1365 1366 1367 1368 1369 1370 1371 1372 1373 1374 1375 1376 1377 1378 1379 1380 1381 1382 1383 1385 1386 1387 1388 1389 1390 1391 1392 1393 0
53 -1385 1365 1366 1367 1368 1369 1370 1371 1372 1373 1374 1375 1376 1377 1378 1379 1380 1381 1382 1383 1384 1386 1387 1388 1389 1390 1391 1392 1393 0
53 -1386 1365 1366 1367 1368 1369 1370 1371 1372 1373 1374 1375 1376 1377 1378 1379 1380 1381 1382 1383 1384 1385 1387 1388 1389 1390 1391 1392 1393 0
53 -1387 1365 1366 1367 1368 1369 1370 1371 1372 1373 1374 1375 1376 1377 1378 1379 1380 1381 1382 1383 1384 1385 1386 1388 1389 1390 1391 1392 1393 0
53 -1388 1365 1366 1367 1368 1369 1370 1371 1372 1373 1374 1375 1376 1377 1378 1379 1380 1381 1382 1383 1384 1385 1386 1387 1389 1390 1391 1392 1393 0
53 -1389 1365 1366 1367 1368 1369 1370 1371 1372 1373 1374 1375 1376 1377 1378 1379 1380 1381 1382 1383 1384 1385 1386 1387 1388 1390 1391 1392 1393 0
53 -1390 1365 1366 1367 1368 1369 1370 1371 1372 1373 1374 1375 1376 1377 1378 1379 1380 1381 1382 1383 1384 1385 1386 1387 1388 1389 1391 1392 1393 0
53 -1391 1365 1366 1367 1368 1369 1370 1371 1372 1373 1374 1375 1376 1377 1378 1379 1380 1381 1382 1383 1384 1385 1386 1387 1388 1389 1390 1392 1393 0
53 -1392 1365 1366 1367 1368 1369 1370 1371 1372 1373 1374 1375 1376 1377 1378 1379 1380 1381 1382 1383 1384 1385 1386 1387 1388 1389 1390 1391 1393 0
53 -1393 1365 1366 1367 1368 1369 1370 1371 1372 1373 1374 1375 1376 1377 1378 1379 1380 1381 1382 1383 1384 1385 1386 1387 1388 1389 1390 1391 1392 0
-1394 1 0
-1394 47 0
-1 -47 1394 0
-1395 2 0
-1395 46 0
-2 -46 1395 0
-1396 3 0
-1396 45 0
-3 -45 1396 0
-1397 4 0
-1397 44 0
-4 -44 1397 0
-1398 5 0
-1398 43 0
-5 -43 1398 0
-1399 6 0
-1399 42 0
-6 -42 1399 0
-1400 7 0
-1400 41 0
-7 -41 1400 0
-1401 8 0
-1401 40 0
-8 -40 1401 0
-1402 9 0
-1402 39 0
-9 -39 1402 0
-1403 10 0
-1403 38 0
-10 -38 1403 0
-1404 11 0
-1404 37 0
-11 -37 1404 0
-1405 12 0
-1405 36 0
-12 -36 1405 0
-1406 13 0
-1406 35 0
-13 -35 1406 0
-1407 14 0
-1407 34 0
-14 -34 1407 0
-1408 15 0
-1408 33 0
-15 -33 1408 0
-1409 16 0
-1409 32 0
-16 -32 1409 0
-1410 17 0
-1410 31 0
-17 -31 1410 0
-1411 18 0
-1411 30 0
-18 -30 1411 0
-1412 19 0
-1412 29 0
-19 -29 1412 0
-1413 20 0
-1413 28 0
-20 -28 1413 0
-1414 21 0
-1414 27 0
-21 -27 1414 0
-1415 22 0
-1415 26 0
-22 -26 1415 0
-1416 23 0
-1416 25 0
-23 -25 1416 0
-1417 48 0
-1417 59 0
-48 -59 1417 0
-1418 49 0
-1418 58 0
-49 -58 1418 0
-1419 50 0
-1419 57 0
-50 -57 1419 0
-1420 51 0
-1420 56 0
-51 -56 1420 0
-1421 52 0
-1421 55 0
-52 -55 1421 0
-1422 53 0
-1422 54 0
-53 -54 1422 0
-24 1394 1395 1396 1397 1398 1399 1400 1401 1402 1403 1404 1405 1406 1407 1408 1409 1410 1411 1412 1413 1414 1415 1416 1417 1418 1419 1420 1421 1422 0
24 -1394 1395 1396 1397 1398 1399 1400 1401 1402 1403 1404 1405 1406 1407 1408 1409 1410 1411 1412 1413 1414 1415 1416 1417 1418 1419 1420 1421 1422 0
24 -1395 1394 1396 1397 1398 1399 1400 1401 1402 1403 1404 1405 1406 1407 1408 1409 1410 1411 1412 1413 1414 1415 1416 1417 1418 1419 1420 1421 1422 0
24 -1396 1394 1395 1397 1398 1399 1400 1401 1402 1403 1404 1405 1406 1407 1408 1409 1410 1411 1412 1413 1414 1415 1416 1417 1418 1419 1420 1421 1422 0
24 -1397 1394 1395 1396 1398 1399 1400 1401 1402 1403 1404 1405 1406 1407 1408 1409 1410 1411 1412 1413 1414 1415 1416 1417 1418 1419 1420 1421 1422 0
24 -1398 1394 1395 1396 1397 1399 1400 1401 1402 1403 1404 1405 1406 1407 1408 1409 1410 1411 1412 1413 1414 1415 1416 1417 1418 1419 1420 1421 1422 0
24 -1399 1394 1395 1396 1397 1398 1400 1401 1402 1403 1404 1405 1406 1407 1408 1409 1410 1411 1412 1413 1414 1415 1416 1417 1418 1419 1420 1421 1422 0
24 -1400 1394 1395 1396 1397 1398 1399 1401 1402 1403 1404 1405 1406 1407 1408 1409 1410 1411 1412 1413 1414 1415 1416 1417 1418 1419 1420 1421 1422 0
24 -1401 1394 1395 1396 1397 1398 1399 1400 1402 1403 1404 1405 1406 1407 1408 1409 1410 1411 1412 1413 1414 1415 1416 1417 1418 1419 1420 1421 1422 0
24 -1402 1394 1395 1396 1397 1398 1399 1400 1401 1403 1404 1405 1406 1407 1408 1409 1410 1411 1412 1413 1414 1415 1416 1417 1418 1419 1420 1421 1422 0
24 -1403 1394 1395 1396 1397 1398 1399 1400 1401 1402 1404 1405 1406 1407 1408 1409 1410 1411 1412 1413 1414 1415 1416 1417 1418 1419 1420 1421 1422 0
24 -1404 1394 1395 1396 1397 1398 1399 1400 1401 1402 1403 1405 1406 1407 1408 1409 1410 1411 1412 1413 1414 1415 1416 1417 1418 1419 1420 1421 1422 0
24 -1405 1394 1395 1396 1397 1398 1399 1400 1401 1402 1403 1404 1406 1407 1408 1409 1410 1411 1412 1413 1414 1415 1416 1417 1418 1419 1420 1421 1422 0
24 -1406 1394 1395 1396 1397 1398 1399 1400 1401 1402 1403 1404 1405 1407 1408 1409 1410 1411 1412 1413 1414 1415 1416 1417 1418 1419 1420 1421 1422 0
24 -1407 1394 1395 1396 1397 1398 1399 1400 1401 1402 1403 1404 1405 1406 1408 1409 1410 1411 1412 1413 1414 1415 1416 1417 1418 1419 1420 1421 1422 0
24 -1408 1394 1395 1396 1397 1398 1399 1400 1401 1402 1403 1404 1405 1406 1407 1409 1410 1411 1412 1413 1414 1415 1416 1417 1418 1419 1420 1421 1422 0
24 -1409 1394 1395 1396 1397 1398 1399 1400 1401 1402 1403 1404 1405 1406 1407 1408 1410 1411 1412 1413 1414 1415 1416 1417 1418 1419 1420 1421 1422 0
24 -1410 1394 1395 1396 1397 1398 1399 1400 1401 1402 1403 1404 1405 1406 1407 1408 1409 1411 1412 1413 1414 1415 1416 1417 1418 1419 1420 1421 1422 0
24 -1411 1394 1395 1396 1397 1398 1399 1400 1401 1402 1403 1404 1405 1406 1407 1408 1409 1410 1412 1413 1414 1415 1416 1417 1418 1419 1420 1421 1422 0
24 -1412 1394 1395 1396 1397 1398 1399 1400 1401 1402 1403 1404 1405 1406 1407 1408 1409 1410 1411 1413 1414 1415 1416 1417 1418 1419 1420 1421 1422 0
24 -1413 1394 1395 1396 1397 1398 1399 1400 1401 1402 1403 1404 1405 1406 1407 1408 1409 1410 1411 1412 1414 1415 1416 1417 1418 1419 1420 1421 1422 0
24 -1414 1394 1395 1396 1397 1398 1399 1400 1401 1402 1403 1404 1405 1406 1407 1408 1409 1410 1411 1412 1413 1415 1416 1417 1418 1419 1420 1421 1422 0
24 -1415 1394 1395 1396 1397 1398 1399 1400 1401 1402 1403 1404 1405 1406 1407 1408 1409 1410 1411 1412 1413 1414 1416 1417 1418 1419 1420 1421 1422 0
24 -1416 1394 1395 1396 1397 1398 1399 1400 1401 1402 1403 1404 1405 1406 1407 1408 1409 1410 1411 1412 1413 1414 1415 1417 1418 1419 1420 1421 1422 0
24 -1417 1394 1395 1396 1397 1398 1399 1400 1401 1402 1403 1404 1405 1406 1407 1408 1409 1410 1411 1412 1413 1414 1415 1416 1418 1419 1420 1421 1422 0
24 -1418 1394 1395 1396 1397 1398 1399 1400 1401 1402 1403 1404 1405 1406 1407 1408 1409 1410 1411 1412 1413 1414 1415 1416 1417 1419 1420 1421 1422 0
24 -1419 1394 1395 1396 1397 1398 1399 1400 1401 1402 1403 1404 1405 1406 1407 1408 1409 1410 1411 1412 1413 1414 1415 1416 1417 1418 1420 1421 1422 0
24 -1420 1394 1395 1396 1397 1398 1399 1400 1401 1402 1403 1404 1405 1406 1407 1408 1409 1410 1411 1412 1413 1414 1415 1416 1417 1418 1419 1421 1422 0
24 -1421 1394 1395 1396 1397 1398 1399 1400 1401 1402 1403 1404 1405 1406 1407 1408 1409 1410 1411 1412 1413 1414 1415 1416 1417 1418 1419 1420 1422 0
24 -1422 1394 1395 1396 1397 1398 1399 1400 1401 1402 1403 1404 1405 1406 1407 1408 1409 1410 1411 1412 1413 1414 1415 1416 1417 1418 1419 1420 1421 0
-1423 1 0
-1423 48 0
-1 -48 1423 0
-1424 2 0
-1424 47 0
-2 -47 1424 0
-1425 3 0
-1425 46 0
-3 -46 1425 0
-1426 4 0
-1426 45 0
-4 -45 1426 0
-1427 5 0
-1427 44 0
-5 -44 1427 0
-1428 6 0
-1428 43 0
-6 -43 1428 0
-1429 7 0
-1429 42 0
-7 -42 1429 0
-1430 8 0
-1430 41 0
-8 -41 1430 0
-1431 9 0
-1431 40 0
-9 -40 1431 0
-1432 10 0
-1432 39 0
-10 -39 1432 0
-1433 11 0
-1433 38 0
-11 -38 1433 0
-1434 12 0
-1434 37 0
-12 -37 1434 0
-1435 13 0
-1435 36 0
-13 -36 1435 0
-1436 14 0
-1436 35 0
-14 -35 1436 0
-1437 15 0
-1437 34 0
-15 -34 1437 0
-1438 16 0
-1438 33 0
-16 -33 1438 0
-1439 17 0
-1439 32 0
-17 -32 1439 0
-1440 18 0
-1440 31 0
-18 -31 1440 0
-1441 19 0
-1441 30 0
-19 -30 1441 0
-1442 20 0
-1442 29 0
-20 -29 1442 0
-1443 21 0
-1443 28 0
-21 -28 1443 0
-1444 22 0
-1444 27 0
-22 -27 1444 0
-1445 23 0
-1445 26 0
-23 -26 1445 0
-1446 24 0
-1446 25 0
-24 -25 1446 0
-1447 49 0
-1447 59 0
-49 -59 1447 0
-1448 50 0
-1448 58 0
-50 -58 1448 0
-1449 51 0
-1449 57 0
-51 -57 1449 0
-1450 52 0
-1450 56 0
-52 -56 1450 0
-1451 53 0
-1451 55 0
-53 -55 1451 0
-54 1423 1424 1425 1426 1427 1428 1429 1430 1431 1432 1433 1434 1435 1436 1437 1438 1439 1440 1441 1442 1443 1444 1445 1446 1447 1448 1449 1450 1451 0
54 -1423 1424 1425 1426 1427 1428 1429 1430 1431 1432 1433 1434 1435 1436 1437 1438 1439 1440 1441 1442 1443 1444 1445 1446 1447 1448 1449 1450 1451 0
54 -1424 1423 1425 1426 1427 1428 1429 1430 1431 1432 1433 1434 1435 1436 1437 1438 1439 1440 1441 1442 1443 1444 1445 1446 1447 1448 1449 1450 1451 0
54 -1425 1423 1424 1426 1427 1428 1429 1430 1431 1432 1433 1434 1435 1436 1437 1438 1439 1440 1441 1442 1443 1444 1445 1446 1447 1448 1449 1450 1451 0
54 -1426 1423 1424 1425 1427 1428 1429 1430 1431 1432 1433 1434 1435 1436 1437 1438 1439 1440 1441 1442 1443 1444 1445 1446 1447 1448 1449 1450 1451 0
54 -1427 1423 1424 1425 1426 1428 1429 1430 1431 1432 1433 1434 1435 1436 1437 1438 1439 1440 1441 1442 1443 1444 1445 1446 1447 1448 1449 1450 1451 0
54 -1428 1423 1424 1425 1426 1427 1429 1430 1431 1432 1433 1434 1435 1436 1437 1438 1439 1440 1441 1442 1443 1444 1445 1446 1447 1448 1449 1450 1451 0
54 -1429 1423 1424 1425 1426 1427 1428 1430 1431 1432 1433 1434 1435 1436 1437 1438 1439 1440 1441 1442 1443 1444 1445 1446 1447 1448 1449 1450 1451 0
54 -1430 1423 1424 1425 1426 1427 1428 1429 1431 1432 1433 1434 1435 1436 1437 1438 1439 1440 1441 1442 1443 1444 1445 1446 1447 1448 1449 1450 1451 0
54 -1431 1423 1424 1425 1426 1427 1428 1429 1430 1432 1433 1434 1435 1436 1437 1438 1439 1440 1441 1442 1443 1444 1445 1446 1447 1448 1449 1450 1451 0
54 -1432 1423 1424 1425 1426 1427 1428 1429 1430 1431 1433 1434 1435 1436 1437 1438 1439 1440 1441 1442 1443 1444 1445 1446 1447 1448 1449 1450 1451 0
54 -1433 1423 1424 1425 1426 1427 1428 1429 1430 1431 1432 1434 1435 1436 1437 1438 1439 1440 1441 1442 1443 1444 1445 1446 1447 1448 1449 1450 1451 0
54 -1434 1423 1424 1425 1426 1427 1428 1429 1430 1431 1432 1433 1435 1436 1437 1438 1439 1440 1441 1442 1443 1444 1445 1446 1447 1448 1449 1450 1451 0
54 -1435 1423 1424 1425 1426 1427 1428 1429 1430 1431 1432 1433 1434 1436 1437 1438 1439 1440 1441 1442 1443 1444 1445 1446 1447 1448 1449 1450 1451 0
54 -1436 1423 1424 1425 1426 1427 1428 1429 1430 1431 1432 1433 1434 1435 1437 1438 1439 1440 1441 1442 1443 1444 1445 1446 1447 1448 1449 1450 1451 0
54 -1437 1423 1424 1425 1426 1427 1428 1429 1430 1431 1432 1433 1434 1435 1436 1438 1439 1440 1441 1442 1443 1444 1445 1446 1447 1448 1449 1450 1451 0
54 -1438 1423 1424 1425 1426 1427 1428 1429 1430 1431 1432 1433 1434 1435 1436 1437 1439 1440 1441 1442 1443 1444 1445 1446 1447 1448 1449 1450 1451 0
54 -1439 1423 1424 1425 1426 1427 1428 1429 1430 1431 1432 1433 1434 1435 1436 1437 1438 1440 1441 1442 1443 1444 1445 1446 1447 1448 1449 1450 1451 0
54 -1440 1423 1424 1425 1426 1427 1428 1429 1430 1431 1432 1433 1434 1435 1436 1437 1438 1439 1441 1442 1443 1444 1445 1446 1447 1448 1449 1450 1451 0
54 -1441 1423 1424 1425 1426 1427 1428 1429 1430 1431 1432 1433 1434 1435 1436 1437 1438 1439 1440 1442 1443 1444 1445 1446 1447 1448 1449 1450 1451 0
54 -1442 1423 1424 1425 1426 1427 1428 1429 1430 1431 1432 1433 1434 1435 1436 1437 1438 1439 1440 1441 1443 1444 1445 1446 1447 1448 1449 1450 1451 0
54 -1443 1423 1424 1425 1426 1427 1428 1429 1430 1431 1432 1433 1434 1435 1436 1437 1438 1439 1440 1441 1442 1444 1445 1446 1447 1448 1449 1450 1451 0
54 -1444 1423 1424 1425 1426 1427 1428 1429 1430 1431 1432 1433 1434 1435 1436 1437 1438 1439 1440 1441 1442 1443 1445 1446 1447 1448 1449 1450 1451 0
54 -1445 1423 1424 1425 1426 1427 1428 1429 1430 1431 1432 1433 1434 1435 1436 1437 1438 1439 1440 1441 1442 1443 1444 1446 1447 1448 1449 1450 1451 0
54 -1446 1423 1424 1425 1426 1427 1428 1429 1430 1431 1432 1433 1434 1435 1436 1437 1438 1439 1440 1441 1442 1443 1444 1445 1447 1448 1449 1450 1451 0
54 -1447 1423 1424 1425 1426 1427 1428 1429 1430 1431 1432 1433 1434 1435 1436 1437 1438 1439 1440 1441 1442 1443 1444 1445 1446 1448 1449 1450 1451 0
54 -1448 1423 1424 1425 1426 1427 1428 1429 1430 1431 1432 1433 1434 1435 1436 1437 1438 1439 1440 1441 1442 1443 1444 1445 1446 1447 1449 1450 1451 0
54 -1449 1423 1424 1425 1426 1427 1428 1429 1430 1431 1432 1433 1434 1435 1436 1437 1438 1439 1440 1441 1442 1443 1444 1445 1446 1447 1448 1450 1451 0
54 -1450 1423 1424 1425 1426 1427 1428 1429 1430 1431 1432 1433 1434 1435 1436 1437 1438 1439 1440 1441 1442 1443 1444 1445 1446 1447 1448 1449 1451 0
54 -1451 1423 1424 1425 1426 1427 1428 1429 1430 1431 1432 1433 1434 1435 1436 1437 1438 1439 1440 1441 1442 1443 1444 1445 1446 1447 1448 1449 1450 0
-1452 1 0
-1452 49 0
-1 -49 1452 0
-1453 2 0
-1453 48 0
-2 -48 1453 0
-1454 3 0
-1454 47 0
-3 -47 1454 0
-1455 4 0
-1455 46 0
-4 -46 1455 0
-1456 5 0
-1456 45 0
-5 -45 1456 0
-1457 6 0
-1457 44 0
-6 -44 1457 0
-1458 7 0
-1458 43 0
-7 -43 1458 0
-1459 8 0
-1459 42 0
-8 -42 1459 0
-1460 9 0
-1460 41 0
-9 -41 1460 0
-1461 10 0
-1461 40 0
-10 -40 1461 0
-1462 11 0
-1462 39 0
-11 -39 1462 0
-1463 12 0
-1463 38 0
-12 -38 1463 0
-1464 13 0
-1464 37 0
-13 -37 1464 0
-1465 14 0
-1465 36 0
-14 -36 1465 0
-1466 15 0
-1466 35 0
-15 -35 1466 0
-1467 16 0
-1467 34 0
-16 -34 1467 0
-1468 17 0
-1468 33 0
-17 -33 1468 0
-1469 18 0
-1469 32 0
-18 -32 1469 0
-1470 19 0
-1470 31 0
-19 -31 1470 0
-1471 20 0
-1471 30 0
-20 -30 1471 0
-1472 21 0
-1472 29 0
-21 -29 1472 0
-1473 22 0
-1473 28 0
-22 -28 1473 0
-1474 23 0
-1474 27 0
-23 -27 1474 0
-1475 24 0
-1475 26 0
-24 -26 1475 0
-1476 50 0
-1476 59 0
-50 -59 1476 0
-1477 51 0
-1477 58 0
-51 -58 1477 0
-1478 52 0
-1478 57 0
-52 -57 1478 0
-1479 53 0
-1479 56 0
-53 -56 1479 0
-1480 54 0
-1480 55 0
-54 -55 1480 0
-25 1452 1453 1454 1455 1456 1457 1458 1459 1460 1461 1462 1463 1464 1465 1466 1467 1468 1469 1470 1471 1472 1473 1474 1475 1476 1477 1478 1479 1480 0
25 -1452 1453 1454 1455 1456 1457 1458 1459 1460 1461 1462 1463 1464 1465 1466 1467 1468 1469 1470 1471 1472 1473 1474 1475 1476 1477 1478 1479 1480 0
25 -1453 1452 1454 1455 1456 1457 1458 1459 1460 1461 1462 1463 1464 1465 1466 1467 1468 1469 1470 1471 1472 1473 1474 1475 1476 1477 1478 1479 1480 0
25 -1454 1452 1453 1455 1456 1457 1458 1459 1460 1461 1462 1463 1464 1465 1466 1467 1468 1469 1470 1471 1472 1473 1474 1475 1476 1477 1478 1479 1480 0
25 -1455 1452 1453 1454 1456 1457 1458 1459 1460 1461 1462 1463 1464 1465 1466 1467 1468 1469 1470 1471 1472 1473 1474 1475 1476 1477 1478 1479 1480 0
25 -1456 1452 1453 1454 1455 1457 1458 1459 1460 1461 1462 1463 1464 1465 1466 1467 1468 1469 1470 1471 1472 1473 1474 1475 1476 1477 1478 1479 1480 0
25 -1457 1452 1453 1454 1455 1456 1458 1459 1460 1461 1462 1463 1464 1465 1466 1467 1468 1469 1470 1471 1472 1473 1474 1475 1476 1477 1478 1479 1480 0
25 -1458 1452 1453 1454 1455 1456 1457 1459 1460 1461 1462 1463 1464 1465 1466 1467 1468 1469 1470 1471 1472 1473 1474 1475 1476 1477 1478 1479 1480 0
25 -1459 1452 1453 1454 1455 1456 1457 1458 1460 1461 1462 1463 1464 1465 1466 1467 1468 1469 1470 1471 1472 1473 1474 1475 1476 1477 1478 1479 1480 0
25 -1460 1452 1453 1454 1455 1456 1457 1458 1459 1461 1462 1463 1464 1465 1466 1467 1468 1469 1470 1471 1472 1473 1474 1475 1476 1477 1478 1479 1480 0
25 -1461 1452 1453 1454 1455 1456 1457 1458 1459 1460 1462 1463 1464 1465 1466 1467 1468 1469 1470 1471 1472 1473 1474 1475 1476 1477 1478 1479 1480 0
25 -1462 1452 1453 1454 1455 1456 1457 1458 1459 1460 1461 1463 1464 1465 1466 1467 1468 1469 1470 1471 1472 1473 1474 1475 1476 1477 1478 1479 1480 0
25 -1463 1452 1453 1454 1455 1456 1457 1458 1459 1460 1461 1462 1464 1465 1466 1467 1468 1469 1470 1471 1472 1473 1474 1475 1476 1477 1478 1479 1480 0
25 -1464 1452 1453 1454 1455 1456 1457 1458 1459 1460 1461 1462 1463 1465 1466 1467 1468 1469 1470 1471 1472 1473 1474 1475 1476 1477 1478 1479 1480 0
25 -1465 1452 1453 1454 1455 1456 1457 1458 1459 1460 1461 1462 1463 1464 1466 1467 1468 1469 1470 1471 1472 1473 1474 1475 1476 1477 1478 1479 1480 0
25 -1466 1452 1453 1454 1455 1456 1457 1458 1459 1460 1461 1462 1463 1464 1465 1467 1468 1469 1470 1471 1472 1473 1474 1475 1476 1477 1478 1479 1480 0
25 -1467 1452 1453 1454 1455 1456 1457 1458 1459 1460 1461 1462 1463 1464 1465 1466 1468 1469 1470 1471 1472 1473 1474 1475 1476 1477 1478 1479 1480 0
25 -1468 1452 1453 1454 1455 1456 1457 1458 1459 1460 1461 1462 1463 1464 1465 1466 1467 1469 1470 1471 1472 1473 1474 1475 1476 1477 1478 1479 1480 0
25 -1469 1452 1453 1454 1455 1456 1457 1458 1459 1460 1461 1462 1463 1464 1465 1466 1467 1468 1470 1471 1472 1473 1474 1475 1476 1477 1478 1479 1480 0
25 -1470 1452 1453 1454 1455 1456 1457 1458 1459 1460 1461 1462 1463 1464 1465 1466 1467 1468 1469 1471 1472 1473 1474 1475 1476 1477 1478 1479 1480 0
25 -1471 1452 1453 1454 1455 1456 1457 1458 1459 1460 1461 1462 1463 1464 1465 1466 1467 1468 1469 1470 1472 1473 1474 1475 1476 1477 1478 1479 1480 0
25 -1472 1452 1453 1454 1455 1456 1457 1458 1459 1460 1461 1462 1463 1464 1465 1466 1467 1468 1469 1470 1471 1473 1474 1475 1476 1477 1478 1479 1480 0
25 -1473 1452 1453 1454 1455 1456 1457 1458 1459 1460 1461 1462 1463 1464 1465 1466 1467 1468 1469 1470 1471 1472 1474 1475 1476 1477 1478 1479 1480 0
25 -1474 1452 1453 1454 1455 1456 1457 1458 1459 1460 1461 1462 1463 1464 1465 1466 1467 1468 1469 1470 1471 1472 1473 1475 1476 1477 1478 1479 1480 0
25 -1475 1452 1453 1454 1455 1456 1457 1458 1459 1460 1461 1462 1463 1464 1465 1466 1467 1468 1469 1470 1471 1472 1473 1474 1476 1477 1478 1479 1480 0
25 -1476 1452 1453 1454 1455 1456 1457 1458 1459 1460 1461 1462 1463 1464 1465 1466 1467 1468 1469 1470 1471 1472 1473 1474 1475 1477 1478 1479 1480 0
25 -1477 1452 1453 1454 1455 1456 1457 1458 1459 1460 1461 1462 1463 1464 1465 1466 1467 1468 1469 1470 1471 1472 1473 1474 1475 1476 1478 1479 1480 0
25 -1478 1452 1453 1454 1455 1456 1457 1458 1459 1460 1461 1462 1463 1464 1465 1466 1467 1468 1469 1470 1471 1472 1473 1474 1475 1476 1477 1479 1480 0
25 -1479 1452 1453 1454 1455 1456 1457 1458 1459 1460 1461 1462 1463 1464 1465 1466 1467 1468 1469 1470 1471 1472 1473 1474 1475 1476 1477 1478 1480 0
25 -1480 1452 1453 1454 1455 1456 1457 1458 1459 1460 1461 1462 1463 1464 1465 1466 1467 1468 1469 1470 1471 1472 1473 1474 1475 1476 1477 1478 1479 0
-1481 1 0
-1481 50 0
-1 -50 1481 0
-1482 2 0
-1482 49 0
-2 -49 1482 0
-1483 3 0
-1483 48 0
-3 -48 1483 0
-1484 4 0
-1484 47 0
-4 -47 1484 0
-1485 5 0
-1485 46 0
-5 -46 1485 0
-1486 6 0
-1486 45 0
-6 -45 1486 0
-1487 7 0
-1487 44 0
-7 -44 1487 0
-1488 8 0
-1488 43 0
-8 -43 1488 0
-1489 9 0
-1489 42 0
-9 -42 1489 0
-1490 10 0
-1490 41 0
-10 -41 1490 0
-1491 11 0
-1491 40 0
-11 -40 1491 0
-1492 12 0
-1492 39 0
-12 -39 1492 0
-1493 13 0
-1493 38 0
-13 -38 1493 0
-1494 14 0
-1494 37 0
-14 -37 1494 0
-1495 15 0
-1495 36 0
-15 -36 1495 0
-1496 16 0
-1496 35 0
-16 -35 1496 0
-1497 17 0
-1497 34 0
-17 -34 1497 0
-1498 18 0
-1498 33 0
-18 -33 1498 0
-1499 19 0
-1499 32 0
-19 -32 1499 0
-1500 20 0
-1500 31 0
-20 -31 1500 0
-1501 21 0
-1501 30 0
-21 -30 1501 0
-1502 22 0
-1502 29 0
-22 -29 1502 0
-1503 23 0
-1503 28 0
-23 -28 1503 0
-1504 24 0
-1504 27 0
-24 -27 1504 0
-1505 25 0
-1505 26 0
-25 -26 1505 0
-1506 51 0
-1506 59 0
-51 -59 1506 0
-1507 52 0
-1507 58 0
-52 -58 1507 0
-1508 53 0
-1508 57 0
-53 -57 1508 0
-1509 54 0
-1509 56 0
-54 -56 1509 0
-55 1481 1482 1483 1484 1485 1486 1487 1488 1489 1490 1491 1492 1493 1494 1495 1496 1497 1498 1499 1500 1501 1502 1503 1504 1505 1506 1507 1508 1509 0
55 -1481 1482 1483 1484 1485 1486 1487 1488 1489 1490 1491 1492 1493 1494 1495 1496 1497 1498 1499 1500 1501 1502 1503 1504 1505 1506 1507 1508 1509 0
55 -1482 1481 1483 1484 1485 1486 1487 1488 1489 1490 1491 1492 1493 1494 1495 1496 1497 1498 1499 1500 1501 1502 1503 1504 1505 1506 1507 1508 1509 0
55 -1483 1481 1482 1484 1485 1486 1487 1488 1489 1490 1491 1492 1493 1494 1495 1496 1497 1498 1499 1500 1501 1502 1503 1504 1505 1506 1507 1508 1509 0
55 -1484 1481 1482 1483 1485 1486 1487 1488 1489 1490 1491 1492 1493 1494 1495 1496 1497 1498 1499 1500 1501 1502 1503 1504 1505 1506 1507 1508 1509 0
55 -1485 1481 1482 1483 1484 1486 1487 1488 1489 1490 1491 1492 1493 1494 1495 1496 1497 1498 1499 1500 1501 1502 1503 1504 1505 1506 1507 1508 1509 0
55 -1486 1481 1482 1483 1484 1485 1487 1488 1489 1490 1491 1492 1493 1494 1495 1496 1497 1498 1499 1500 1501 1502 1503 1504 1505 1506 1507 1508 1509 0
55 -1487 1481 1482 1483 1484 1485 1486 1488 1489 1490 1491 1492 1493 1494 1495 1496 1497 1498 1499 1500 1501 1502 1503 1504 1505 1506 1507 1508 1509 0
55 -1488 1481 1482 1483 1484 1485 1486 1487 1489 1490 1491 1492 1493 1494 1495 1496 1497 1498 1499 1500 1501 1502 1503 1504 1505 1506 1507 1508 1509 0
55 -1489 1481 1482 1483 1484 1485 1486 1487 1488 1490 1491 1492 1493 1494 1495 1496 1497 1498 1499 1500 1501 1502 1503 1504 1505 1506 1507 1508 1509 0
55 -1490 1481 1482 1483 1484 1485 1486 1487 1488 1489 1491 1492 1493 1494 1495 1496 1497 1498 1499 1500 1501 1502 1503 1504 1505 1506 1507 1508 1509 0
55 -1491 1481 1482 1483 1484 1485 1486 1487 1488 1489 1490 1492 1493 1494 1495 1496 1497 1498 1499 1500 1501 1502 1503 1504 1505 1506 1507 1508 1509 0
55 -1492 1481 1482 1483 1484 1485 1486 1487 1488 1489 1490 1491 1493 1494 1495 1496 1497 1498 1499 1500 1501 1502 1503 1504 1505 1506 1507 1508 1509 0
55 -1493 1481 1482 1483 1484 1485 1486 1487 1488 1489 1490 1491 1492 1494 1495 1496 1497 1498 1499 1500 1501 1502 1503 1504 1505 1506 1507 1508 1509 0
55 -1494 1481 1482 1483 1484 1485 1486 1487 1488 1489 1490 1491 1492 1493 1495 1496 1497 1498 1499 1500 1501 1502 1503 1504 1505 1506 1507 1508 1509 0
55 -1495 1481 1482 1483 1484 1485 1486 1487 1488 1489 1490 1491 1492 1493 1494 1496 1497 1498 1499 1500 1501 1502 1503 1504 1505 1506 1507 1508 1509 0
55 -1496 1481 1482 1483 1484 1485 1486 1487 1488 1489 1490 1491 1492 1493 1494 1495 1497 1498 1499 1500 1501 1502 1503 1504 1505 1506 1507 1508 1509 0
55 -1497 1481 1482 1483 1484 1485 1486 1487 1488 1489 1490 1491 1492 1493 1494 1495 1496 1498 1499 1500 1501 1502 1503 1504 1505 1506 1507 1508 1509 0
55 -1498 1481 1482 1483 1484 1485 1486 1487 1488 1489 1490 1491 1492 1493 1494 1495 1496 1497 1499 1500 1501 1502 1503 1504 1505 1506 1507 1508 1509 0
55 -1499 1481 1482 1483 1484 1485 1486 1487 1488 1489 1490 1491 1492 1493 1494 1495 1496 1497 1498 1500 1501 1502 1503 1504 1505 1506 1507 1508 1509 0
55 -1500 1481 1482 1483 1484 1485 1486 1487 1488 1489 1490 1491 1492 1493 1494 1495 1496 1497 1498 1499 1501 1502 1503 1504 1505 1506 1507 1508 1509 0
55 -1501 1481 1482 1483 1484 1485 1486 1487 1488 1489 1490 1491 1492 1493 1494 1495 1496 1497 1498 1499 1500 1502 1503 1504 1505 1506 1507 1508 1509 0
55 -1502 1481 1482 1483 1484 1485 1486 1487 1488 1489 1490 1491 1492 1493 1494 1495 1496 1497 1498 1499 1500 1501 1503 1504 1505 1506 1507 1508 1509 0
55 -1503 1481 1482 1483 1484 1485 1486 1487 1488 1489 1490 1491 1492 1493 1494 1495 1496 1497 1498 1499 1500 1501 1502 1504 1505 1506 1507 1508 1509 0
55 -1504 1481 1482 1483 1484 1485 1486 1487 1488 1489 1490 1491 1492 1493 1494 1495 1496 1497 1498 1499 1500 1501 1502 1503 1505 1506 1507 1508 1509 0
55 -1505 1481 1482 1483 1484 1485 1486 1487 1488 1489 1490 1491 1492 1493 1494 1495 1496 1497 1498 1499 1500 1501 1502 1503 1504 1506 1507 1508 1509 0
55 -1506 1481 1482 1483 1484 1485 1486 1487 1488 1489 1490 1491 1492 1493 1494 1495 1496 1497 1498 1499 1500 1501 1502 1503 1504 1505 1507 1508 1509 0
55 -1507 1481 1482 1483 1484 1485 1486 1487 1488 1489 1490 1491 1492 1493 1494 1495 1496 1497 1498 1499 1500 1501 1502 1503 1504 1505 1506 1508 1509 0
55 -1508 1481 1482 1483 1484 1485 1486 1487 1488 1489 1490 1491 1492 1493 1494 1495 1496 1497 1498 1499 1500 1501 1502 1503 1504 1505 1506 1507 1509 0
55 -1509 1481 1482 1483 1484 1485 1486 1487 1488 1489 1490 1491 1492 1493 1494 1495 1496 1497 1498 1499 1500 1501 1502 1503 1504 1505 1506 1507 1508 0
-1510 1 0
-1510 51 0
-1 -51 1510 0
-1511 2 0
-1511 50 0
-2 -50 1511 0
-1512 3 0
-1512 49 0
-3 -49 1512 0
-1513 4 0
-1513 48 0
-4 -48 1513 0
-1514 5 0
-1514 47 0
-5 -47 1514 0
-1515 6 0
-1515 46 0
-6 -46 1515 0
-1516 7 0
-1516 45 0
-7 -45 1516 0
-1517 8 0
-1517 44 0
-8 -44 1517 0
-1518 9 0
-1518 43 0
-9 -43 1518 0
-1519 10 0
-1519 42 0
-10 -42 1519 0
-1520 11 0
-1520 41 0
-11 -41 1520 0
-1521 12 0
-1521 40 0
-12 -40 1521 0
-1522 13 0
-1522 39 0
-13 -39 1522 0
-1523 14 0
-1523 38 0
-14 -38 1523 0
-1524 15 0
-1524 37 0
-15 -37 1524 0
-1525 16 0
-1525 36 0
-16 -36 1525 0
-1526 17 0
-1526 35 0
-17 -35 1526 0
-1527 18 0
-1527 34 0
-18 -34 1527 0
-1528 19 0
-1528 33 0
-19 -33 1528 0
-1529 20 0
-1529 32 0
-20 -32 1529 0
-1530 21 0
-1530 31 0
-21 -31 1530 0
-1531 22 0
-1531 30 0
-22 -30 1531 0
-1532 23 0
-1532 29 0
-23 -29 1532 0
-1533 24 0
-1533 28 0
-24 -28 1533 0
-1534 25 0
-1534 27 0
-25 -27 1534 0
-1535 52 0
-1535 59 0
-52 -59 1535 0
-1536 53 0
-1536 58 0
-53 -58 1536 0
-1537 54 0
-1537 57 0
-54 -57 1537 0
-1538 55 0
-1538 56 0
-55 -56 1538 0
-26 1510 1511 1512 1513 1514 1515 1516 1517 1518 1519 1520 1521 1522 1523 1524 1525 1526 1527 1528 1529 1530 1531 1532 1533 1534 1535 1536 1537 1538 0
26 -1510 1511 1512 1513 1514 1515 1516 1517 1518 1519 1520 1521 1522 1523 1524 1525 1526 1527 1528 1529 1530 1531 1532 1533 1534 1535 1536 1537 1538 0
26 -1511 1510 1512 1513 1514 1515 1516 1517 1518 1519 1520 1521 1522 1523 1524 1525 1526 1527 1528 1529 1530 1531 1532 1533 1534 1535 1536 1537 1538 0
26 -1512 1510 1511 1513 1514 1515 1516 1517 1518 1519 1520 1521 1522 1523 1524 1525 1526 1527 1528 1529 1530 1531 1532 1533 1534 1535 1536 1537 1538 0
26 -1513 1510 1511 1512 1514 1515 1516 1517 1518 1519 1520 1521 1522 1523 1524 1525 1526 1527 1528 1529 1530 1531 1532 1533 1534 1535 1536 1537 1538 0
26 -1514 1510 1511 1512 1513 1515 1516 1517 1518 1519 1520 1521 1522 1523 1524 1525 1526 1527 1528 1529 1530 1531 1532 1533 1534 1535 1536 1537 1538 0
26 -1515 1510 1511 1512 1513 1514 1516 1517 1518 1519 1520 1521 1522 1523 1524 1525 1526 1527 1528 1529 1530 1531 1532 1533 1534 1535 1536 1537 1538 0
26 -1516 1510 1511 1512 1513 1514 1515 1517 1518 1519 1520 1521 1522 1523 1524 1525 1526 1527 1528 1529 1530 1531 1532 1533 1534 1535 1536 1537 1538 0
26 -1517 1510 1511 1512 1513 1514 1515 1516 1518 1519 1520 1521 1522 1523 1524 1525 1526 1527 1528 1529 1530 1531 1532 1533 1534 1535 1536 1537 1538 0
26 -1518 1510 1511 1512 1513 1514 1515 1516 1517 1519 1520 1521 1522 1523 1524 1525 1526 1527 1528 1529 1530 1531 1532 1533 1534 1535 1536 1537 1538 0
26 -1519 1510 1511 1512 1513 1514 1515 1516 1517 1518 1520 1521 1522 1523 1524 1525 1526 1527 1528 1529 1530 1531 1532 1533 1534 1535 1536 1537 1538 0
26 -1520 1510 1511 1512 1513 1514 1515 1516 1517 1518 1519 1521 1522 1523 1524 1525 1526 1527 1528 1529 1530 1531 1532 1533 1534 1535 1536 1537 1538 0
26 -1521 1510 1511 1512 1513 1514 1515 1516 1517 1518 1519 1520 1522 1523 1524 1525 1526 1527 1528 1529 1530 1531 1532 1533 1534 1535 1536 1537 1538 0
26 -1522 1510 1511 1512 1513 1514 1515 1516 1517 1518 1519 1520 1521 1523 1524 1525 1526 1527 1528 1529 1530 1531 1532 1533 1534 1535 1536 1537 1538 0
26 -1523 1510 1511 1512 1513 1514 1515 1516 1517 1518 1519 1520 1521 1522 1524 1525 1526 1527 1528 1529 1530 1531 1532 1533 1534 1535 1536 1537 1538 0
26 -1524 1510 1511 1512 1513 1514 1515 1516 1517 1518 1519 1520 1521 1522 1523 1525 1526 1527 1528 1529 1530 1531 1532 1533 1534 1535 1536 1537 1538 0
26 -1525 1510 1511 1512 1513 1514 1515 1516 1517 1518 1519 1520 1521 1522 1523 1524 1526 1527 1528 1529 1530 1531 1532 1533 1534 1535 1536 1537 1538 0
26 -1526 1510 1511 1512 1513 1514 1515 1516 1517 1518 1519 1520 1521 1522 1523 1524 1525 1527 1528 1529 1530 1531 1532 1533 1534 1535 1536 1537 1538 0
26 -1527 1510 1511 1512 1513 1514 1515 1516 1517 1518 1519 1520 1521 1522 1523 1524 1525 1526 1528 1529 1530 1531 1532 1533 1534 1535 1536 1537 1538 0
26 -1528 1510 1511 1512 1513 1514 1515 1516 1517 1518 1519 1520 1521 1522 1523 1524 1525 1526 1527 1529 1530 1531 1532 1533 1534 1535 1536 1537 1538 0
26 -1529 1510 1511 1512 1513 1514 1515 1516 1517 1518 1519 1520 1521 1522 1523 1524 1525 1526 1527 1528 1530 1531 1532 1533 1534 1535 1536 1537 1538 0
26 -1530 1510 1511 1512 1513 1514 1515 1516 1517 1518 1519 1520 1521 1522 1523 1524 1525 1526 1527 1528 1529 1531 1532 1533 1534 1535 1536 1537 1538 0
26 -1531 1510 1511 1512 1513 1514 1515 1516 1517 1518 1519 1520 1521 1522 1523 1524 1525 1526 1527 1528 1529 1530 1532 1533 1534 1535 1536 1537 1538 0
26 -1532 1510 1511 1512 1513 1514 1515 1516 1517 1518 1519 1520 1521 1522 1523 1524 1525 1526 1527 1528 1529 1530 1531 1533 1534 1535 1536 1537 1538 0
26 -1533 1510 1511 1512 1513 1514 1515 1516 1517 1518 1519 1520 1521 1522 1523 1524 1525 1526 1527 1528 1529 1530 1531 1532 1534 1535 1536 1537 1538 0
26 -1534 1510 1511 1512 1513 1514 1515 1516 1517 1518 1519 1520 1521 1522 1523 1524 1525 1526 1527 1528 1529 1530 1531 1532 1533 1535 1536 1537 1538 0
26 -1535 1510 1511 1512 1513 1514 1515 1516 1517 1518 1519 1520 1521 1522 1523 1524 1525 1526 1527 1528 1529 1530 1531 1532 1533 1534 1536 1537 1538 0
26 -1536 1510 1511 1512 1513 1514 1515 1516 1517 1518 1519 1520 1521 1522 1523 1524 1525 1526 1527 1528 1529 1530 1531 1532 1533 1534 1535 1537 1538 0
26 -1537 1510 1511 1512 1513 1514 1515 1516 1517 1518 1519 1520 1521 1522 1523 1524 1525 1526 1527 1528 1529 1530 1531 1532 1533 1534 1535 1536 1538 0
26 -1538 1510 1511 1512 1513 1514 1515 1516 1517 1518 1519 1520 1521 1522 1523 1524 1525 1526 1527 1528 1529 1530 1531 1532 1533 1534 1535 1536 1537 0
-1539 1 0
-1539 52 0
-1 -52 1539 0
-1540 2 0
-1540 51 0
-2 -51 1540 0
-1541 3 0
-1541 50 0
-3 -50 1541 0
-1542 4 0
-1542 49 0
-4 -49 1542 0
-1543 5 0
-1543 48 0
-5 -48 1543 0
-1544 6 0
-1544 47 0
-6 -47 1544 0
-1545 7 0
-1545 46 0
-7 -46 1545 0
-1546 8 0
-1546 45 0
-8 -45 1546 0
-1547 9 0
-1547 44 0
-9 -44 1547 0
-1548 10 0
-1548 43 0
-10 -43 1548 0
-1549 11 0
-1549 42 0
-11 -42 1549 0
-1550 12 0
-1550 41 0
-12 -41 1550 0
-1551 13 0
-1551 40 0
-13 -40 1551 0
-1552 14 0
-1552 39 0
-14 -39 1552 0
-1553 15 0
-1553 38 0
-15 -38 1553 0
-1554 16 0
-1554 37 0
-16 -37 1554 0
-1555 17 0
-1555 36 0
-17 -36 1555 0
-1556 18 0
-1556 35 0
-18 -35 1556 0
-1557 19 0
-1557 34 0
-19 -34 1557 0
-1558 20 0
-1558 33 0
-20 -33 1558 0
-1559 21 0
-1559 32 0
-21 -32 1559 0
-1560 22 0
-1560 31 0
-22 -31 1560 0
-1561 23 0
-1561 30 0
-23 -30 1561 0
-1562 24 0
-1562 29 0
-24 -29 1562 0
-1563 25 0
-1563 28 0
-25 -28 1563 0
-1564 26 0
-1564 27 0
-26 -27 1564 0
-1565 53 0
-1565 59 0
-53 -59 1565 0
-1566 54 0
-1566 58 0
-54 -58 1566 0
-1567 55 0
-1567 57 0
-55 -57 1567 0
-56 1539 1540 1541 1542 1543 1544 1545 1546 1547 1548 1549 1550 1551 1552 1553 1554 1555 1556 1557 1558 1559 1560 1561 1562 1563 1564 1565 1566 1567 0
56 -1539 1540 1541 1542 1543 1544 1545 1546 1547 1548 1549 1550 1551 1552 1553 1554 1555 1556 1557 1558 1559 1560 1561 1562 1563 1564 1565 1566 1567 0
56 -1540 1539 1541 1542 1543 1544 1545 1546 1547 1548 1549 1550 1551 1552 1553 1554 1555 1556 1557 1558 1559 1560 1561 1562 1563 1564 1565 1566 1567 0
56 -1541 1539 1540 1542 1543 1544 1545 1546 1547 1548 1549 1550 1551 1552 1553 1554 1555 1556 1557 1558 1559 1560 1561 1562 1563 1564 1565 1566 1567 0
56 -1542 1539 1540 1541 1543 1544 1545 1546 1547 1548 1549 1550 1551 1552 1553 1554 1555 1556 1557 1558 1559 1560 1561 1562 1563 1564 1565 1566 1567 0
56 -1543 1539 1540 1541 1542 1544 1545 1546 1547 1548 1549 1550 1551 1552 1553 1554 1555 1556 1557 1558 1559 1560 1561 1562 1563 1564 1565 1566 1567 0
56 -1544 1539 1540 1541 1542 1543 1545 1546 1547 1548 1549 1550 1551 1552 1553 1554 1555 1556 1557 1558 1559 1560 1561 1562 1563 1564 1565 1566 1567 0
56 -1545 1539 1540 1541 1542 1543 1544 1546 1547 1548 1549 1550 1551 1552 1553 1554 1555 1556 1557 1558 1559 1560 1561 1562 1563 1564 1565 1566 1567 0
56 -1546 1539 1540 1541 1542 1543 1544 1545 1547 1548 1549 1550 1551 1552 1553 1554 1555 1556 1557 1558 1559 1560 1561 1562 1563 1564 1565 1566 1567 0
56 -1547 1539 1540 1541 1542 1543 1544 1545 1546 1548 1549 1550 1551 1552 1553 1554 1555 1556 1557 1558 1559 1560 1561 1562 1563 1564 1565 1566 1567 0
56 -1548 1539 1540 1541 1542 1543 1544 1545 1546 1547 1549 1550 1551 1552 1553 1554 1555 1556 1557 1558 1559 1560 1561 1562 1563 1564 1565 1566 1567 0
56 -1549 1539 1540 1541 1542 1543 1544 1545 1546 1547 1548 1550 1551 1552 1553 1554 1555 1556 1557 1558 1559 1560 1561 1562 1563 1564 1565 1566 1567 0
56 -1550 1539 1540 1541 1542 1543 1544 1545 1546 1547 1548 1549 1551 1552 1553 1554 1555 1556 1557 1558 1559 1560 1561 1562 1563 1564 1565 1566 1567 0
56 -1551 1539 1540 1541 1542 1543 1544 1545 1546 1547 1548 1549 1550 1552 1553 1554 1555 1556 1557 1558 1559 1560 1561 1562 1563 1564 1565 1566 1567 0
56 -1552 1539 1540 1541 1542 1543 1544 1545 1546 1547 1548 1549 1550 1551 1553 1554 1555 1556 1557 1558 1559 1560 1561 1562 1563 1564 1565 1566 1567 0
56 -1553 1539 1540 1541 1542 1543 1544 1545 1546 1547 1548 1549 1550 1551 1552 1554 1555 1556 1557 1558 1559 1560 1561 1562 1563 1564 1565 1566 1567 0
56 -1554 1539 1540 1541 1542 1543 1544 1545 1546 1547 1548 1549 1550 1551 1552 1553 1555 1556 1557 1558 1559 1560 1561 1562 1563 1564 1565 1566 1567 0
56 -1555 1539 1540 1541 1542 1543 1544 1545 1546 1547 1548 1549 1550 1551 1552 1553 1554 1556 1557 1558 1559 1560 1561 1562 1563 1564 1565 1566 1567 0
56 -1556 1539 1540 1541 1542 1543 1544 1545 1546 1547 1548 1549 1550 1551 1552 1553 1554 1555 1557 1558 1559 1560 1561 1562 1563 1564 1565 1566 1567 0
56 -1557 1539 1540 1541 1542 1543 1544 1545 1546 1547 1548 1549 1550 1551 1552 1553 1554 1555 1556 1558 1559 1560 1561 1562 1563 1564 1565 1566 1567 0
56 -1558 1539 1540 1541 1542 1543 1544 1545 1546 1547 1548 1549 1550 1551 1552 1553 1554 1555 1556 1557 1559 1560 1561 1562 1563 1564 1565 1566 1567 0
56 -1559 1539 1540 1541 1542 1543 1544 1545 1546 1547 1548 1549 1550 1551 1552 1553 1554 1555 1556 1557 1558 1560 1561 1562 1563 1564 1565 1566 1567 0
56 -1560 1539 1540 1541 1542 1543 1544 1545 1546 1547 1548 1549 1550 1551 1552 1553 1554 1555 1556 1557 1558 1559 1561 1562 1563 1564 1565 1566 1567 0
56 -1561 1539 1540 1541 1542 1543 1544 1545 1546 1547 1548 1549 1550 1551 1552 1553 1554 1555 1556 1557 1558 1559 1560 1562 1563 1564 1565 1566 1567 0
56 -1562 1539 1540 1541 1542 1543 1544 1545 1546 1547 1548 1549 1550 1551 1552 1553 1554 1555 1556 1557 1558 1559 1560 1561 1563 1564 1565 1566 1567 0
56 -1563 1539 1540 1541 1542 1543 1544 1545 1546 1547 1548 1549 1550 1551 1552 1553 1554 1555 1556 1557 1558 1559 1560 1561 1562 1564 1565 1566 1567 0
56 -1564 1539 1540 1541 1542 1543 1544 1545 1546 1547 1548 1549 1550 1551 1552 1553 1554 1555 1556 1557 1558 1559 1560 1561 1562 1563 1565 1566 1567 0
56 -1565 1539 1540 1541 1542 1543 1544 1545 1546 1547 1548 1549 1550 1551 1552 1553 1554 1555 1556 1557 1558 1559 1560 1561 1562 1563 1564 1566 1567 0
56 -1566 1539 1540 1541 1542 1543 1544 1545 1546 1547 1548 1549 1550 1551 1552 1553 1554 1555 1556 1557 1558 1559 1560 1561 1562 1563 1564 1565 1567 0
56 -1567 1539 1540 1541 1542 1543 1544 1545 1546 1547 1548 1549 1550 1551 1552 1553 1554 1555 1556 1557 1558 1559 1560 1561 1562 1563 1564 1565 1566 0
-1568 1 0
-1568 53 0
-1 -53 1568 0
-1569 2 0
-1569 52 0
-2 -52 1569 0
-1570 3 0
-1570 51 0
-3 -51 1570 0
-1571 4 0
-1571 50 0
-4 -50 1571 0
-1572 5 0
-1572 49 0
-5 -49 1572 0
-1573 6 0
-1573 48 0
-6 -48 1573 0
-1574 7 0
-1574 47 0
-7 -47 1574 0
-1575 8 0
-1575 46 0
-8 -46 1575 0
-1576 9 0
-1576 45 0
-9 -45 1576 0
-1577 10 0
-1577 44 0
-10 -44 1577 0
-1578 11 0
-1578 43 0
-11 -43 1578 0
-1579 12 0
-1579 42 0
-12 -42 1579 0
-1580 13 0
-1580 41 0
-13 -41 1580 0
-1581 14 0
-1581 40 0
-14 -40 1581 0
-1582 15 0
-1582 39 0
-15 -39 1582 0
-1583 16 0
-1583 38 0
-16 -38 1583 0
-1584 17 0
-1584 37 0
-17 -37 1584 0
-1585 18 0
-1585 36 0
-18 -36 1585 0
-1586 19 0
-1586 35 0
-19 -35 1586 0
-1587 20 0
-1587 34 0
-20 -34 1587 0
-1588 21 0
-1588 33 0
-21 -33 1588 0
-1589 22 0
-1589 32 0
-22 -32 1589 0
-1590 23 0
-1590 31 0
-23 -31 1590 0
-1591 24 0
-1591 30 0
-24 -30 1591 0
-1592 25 0
-1592 29 0
-25 -29 1592 0
-1593 26 0
-1593 28 0
-26 -28 1593 0
-1594 54 0
-1594 59 0
-54 -59 1594 0
-1595 55 0
-1595 58 0
-55 -58 1595 0
-1596 56 0
-1596 57 0
-56 -57 1596 0
-27 1568 1569 1570 1571 1572 1573 1574 1575 1576 1577 1578 1579 1580 1581 1582 1583 1584 1585 1586 1587 1588 1589 1590 1591 1592 1593 1594 1595 1596 0
27 -1568 1569 1570 1571 1572 1573 1574 1575 1576 1577 1578 1579 1580 1581 1582 1583 1584 1585 1586 1587 1588 1589 1590 1591 1592 1593 1594 1595 1596 0
27 -1569 1568 1570 1571 1572 1573 1574 1575 1576 1577 1578 1579 1580 1581 1582 1583 1584 1585 1586 1587 1588 1589 1590 1591 1592 1593 1594 1595 1596 0
27 -1570 1568 1569 1571 1572 1573 1574 1575 1576 1577 1578 1579 1580 1581 1582 1583 1584 1585 1586 1587 1588 1589 1590 1591 1592 1593 1594 1595 1596 0
27 -1571 1568 1569 1570 1572 1573 1574 1575 1576 1577 1578 1579 1580 1581 1582 1583 1584 1585 1586 1587 1588 1589 1590 1591 1592 1593 1594 1595 1596 0
27 -1572 1568 1569 1570 1571 1573 1574 1575 1576 1577 1578 1579 1580 1581 1582 1583 1584 1585 1586 1587 1588 1589 1590 1591 1592 1593 1594 1595 1596 0
27 -1573 1568 1569 1570 1571 1572 1574 1575 1576 1577 1578 1579 1580 1581 1582 1583 1584 1585 1586 1587 1588 1589 1590 1591 1592 1593 1594 1595 1596 0
27 -1574 1568 1569 1570 1571 1572 1573 1575 1576 1577 1578 1579 1580 1581 1582 1583 1584 1585 1586 1587 1588 1589 1590 1591 1592 1593 1594 1595 1596 0
27 -1575 1568 1569 1570 1571 1572 1573 1574 1576 1577 1578 1579 1580 1581 1582 1583 1584 1585 1586 1587 1588 1589 1590 1591 1592 1593 1594 1595 1596 0
27 -1576 1568 1569 1570 1571 1572 1573 1574 1575 1577 1578 1579 1580 1581 1582 1583 1584 1585 1586 1587 1588 1589 1590 1591 1592 1593 1594 1595 1596 0
27 -1577 1568 1569 1570 1571 1572 1573 1574 1575 1576 1578 1579 1580 1581 1582 1583 1584 1585 1586 1587 1588 1589 1590 1591 1592 1593 1594 1595 1596 0
27 -1578 1568 1569 1570 1571 1572 1573 1574 1575 1576 1577 1579 1580 1581 1582 1583 1584 1585 1586 1587 1588 1589 1590 1591 1592 1593 1594 1595 1596 0
27 -1579 1568 1569 1570 1571 1572 1573 1574 1575 1576 1577 1578 1580 1581 1582 1583 1584 1585 1586 1587 1588 1589 1590 1591 1592 1593 1594 1595 1596 0
27 -1580 1568 1569 1570 1571 1572 1573 1574 1575 1576 1577 1578 1579 1581 1582 1583 1584 1585 1586 1587 1588 1589 1590 1591 1592 1593 1594 1595 1596 0
27 -1581 1568 1569 1570 1571 1572 1573 1574 1575 1576 1577 1578 1579 1580 1582 1583 1584 1585 1586 1587 1588 1589 1590 1591 1592 1593 1594 1595 1596 0
27 -1582 1568 1569 1570 1571 1572 1573 1574 1575 1576 1577 1578 1579 1580 1581 1583 1584 1585 1586 1587 1588 1589 1590 1591 1592 1593 1594 1595 1596 0
27 -1583 1568 1569 1570 1571 1572 1573 1574 1575 1576 1577 1578 1579 1580 1581 1582 1584 1585 1586 1587 1588 1589 1590 1591 1592 1593 1594 1595 1596 0
27 -1584 1568 1569 1570 1571 1572 1573 1574 1575 1576 1577 1578 1579 1580 1581 1582 1583 1585 1586 1587 1588 1589 1590 1591 1592 1593 1594 1595 1596 0
27 -1585 1568 1569 1570 1571 1572 1573 1574 1575 1576 1577 1578 1579 1580 1581 1582 1583 1584 1586 1587 1588 1589 1590 1591 1592 1593 1594 1595 1596 0
27 -1586 1568 1569 1570 1571 1572 1573 1574 1575 1576 1577 1578 1579 1580 1581 1582 1583 1584 1585 1587 1588 1589 1590 1591 1592 1593 1594 1595 1596 0
27 -1587 1568 1569 1570 1571 1572 1573 1574 1575 1576 1577 1578 1579 1580 1581 1582 1583 1584 1585 1586 1588 1589 1590 1591 1592 1593 1594 1595 1596 0
27 -1588 1568 1569 1570 1571 1572 1573 1574 1575 1576 1577 1578 1579 1580 1581 1582 1583 1584 1585 1586 1587 1589 1590 1591 1592 1593 1594 1595 1596 0
27 -1589 1568 1569 1570 1571 1572 1573 1574 1575 1576 1577 1578 1579 1580 1581 1582 1583 1584 1585 1586 1587 1588 1590 1591 1592 1593 1594 1595 1596 0
27 -1590 1568 1569 1570 1571 1572 1573 1574 1575 1576 1577 1578 1579 1580 1581 1582 1583 1584 1585 1586 1587 1588 1589 1591 1592 1593 1594 1595 1596 0
27 -1591 1568 1569 1570 1571 1572 1573 1574 1575 1576 1577 1578 1579 1580 1581 1582 1583 1584 1585 1586 1587 1588 1589 1590 1592 1593 1594 1595 1596 0
27 -1592 1568 1569 1570 1571 1572 1573 1574 1575 1576 1577 1578 1579 1580 1581 1582 1583 1584 1585 1586 1587 1588 1589 1590 1591 1593 1594 1595 1596 0
27 -1593 1568 1569 1570 1571 1572 1573 1574 1575 1576 1577 1578 1579 1580 1581 1582 1583 1584 1585 1586 1587 1588 1589 1590 1591 1592 1594 1595 1596 0
27 -1594 1568 1569 1570 1571 1572 1573 1574 1575 1576 1577 1578 1579 1580 1581 1582 1583 1584 1585 1586 1587 1588 1589 1590 1591 1592 1593 1595 1596 0
27 -1595 1568 1569 1570 1571 1572 1573 1574 1575 1576 1577 1578 1579 1580 1581 1582 1583 1584 1585 1586 1587 1588 1589 1590 1591 1592 1593 1594 1596 0
27 -1596 1568 1569 1570 1571 1572 1573 1574 1575 1576 1577 1578 1579 1580 1581 1582 1583 1584 1585 1586 1587 1588 1589 1590 1591 1592 1593 1594 1595 0
-1597 1 0
-1597 54 0
-1 -54 1597 0
-1598 2 0
-1598 53 0
-2 -53 1598 0
-1599 3 0
-1599 52 0
-3 -52 1599 0
-1600 4 0
-1600 51 0
-4 -51 1600 0
-1601 5 0
-1601 50 0
-5 -50 1601 0
-1602 6 0
-1602 49 0
-6 -49 1602 0
-1603 7 0
-1603 48 0
-7 -48 1603 0
-1604 8 0
-1604 47 0
-8 -47 1604 0
-1605 9 0
-1605 46 0
-9 -46 1605 0
-1606 10 0
-1606 45 0
-10 -45 1606 0
-1607 11 0
-1607 44 0
-11 -44 1607 0
-1608 12 0
-1608 43 0
-12 -43 1608 0
-1609 13 0
-1609 42 0
-13 -42 1609 0
-1610 14 0
-1610 41 0
-14 -41 1610 0
-1611 15 0
-1611 40 0
-15 -40 1611 0
-1612 16 0
-1612 39 0
-16 -39 1612 0
-1613 17 0
-1613 38 0
-17 -38 1613 0
-1614 18 0
-1614 37 0
-18 -37 1614 0
-1615 19 0
-1615 36 0
-19 -36 1615 0
-1616 20 0
-1616 35 0
-20 -35 1616 0
-1617 21 0
-1617 34 0
-21 -34 1617 0
-1618 22 0
-1618 33 0
-22 -33 1618 0
-1619 23 0
-1619 32 0
-23 -32 1619 0
-1620 24 0
-1620 31 0
-24 -31 1620 0
-1621 25 0
-1621 30 0
-25 -30 1621 0
-1622 26 0
-1622 29 0
-26 -29 1622 0
-1623 27 0
-1623 28 0
-27 -28 1623 0
-1624 55 0
-1624 59 0
-55 -59 1624 0
-1625 56 0
-1625 58 0
-56 -58 1625 0
-57 1597 1598 1599 1600 1601 1602 1603 1604 1605 1606 1607 1608 1609 1610 1611 1612 1613 1614 1615 1616 1617 1618 1619 1620 1621 1622 1623 1624 1625 0
57 -1597 1598 1599 1600 1601 1602 1603 1604 1605 1606 1607 1608 1609 1610 1611 1612 1613 1614 1615 1616 1617 1618 1619 1620 1621 1622 1623 1624 1625 0
57 -1598 1597 1599 1600 1601 1602 1603 1604 1605 1606 1607 1608 1609 1610 1611 1612 1613 1614 1615 1616 1617 1618 1619 1620 1621 1622 1623 1624 1625 0
57 -1599 1597 1598 1600 1601 1602 1603 1604 1605 1606 1607 1608 1609 1610 1611 1612 1613 1614 1615 1616 1617 1618 1619 1620 1621 1622 1623 1624 1625 0
57 -1600 1597 1598 1599 1601 1602 1603 1604 1605 1606 1607 1608 1609 1610 1611 1612 1613 1614 1615 1616 1617 1618 1619 1620 1621 1622 1623 1624 1625 0
57 -1601 1597 1598 1599 1600 1602 1603 1604 1605 1606 1607 1608 1609 1610 1611 1612 1613 1614 1615 1616 1617 1618 1619 1620 1621 1622 1623 1624 1625 0
57 -1602 1597 1598 1599 1600 1601 1603 1604 1605 1606 1607 1608 1609 1610 1611 1612 1613 1614 1615 1616 1617 1618 1619 1620 1621 1622 1623 1624 1625 0
57 -1603 1597 1598 1599 1600 1601 1602 1604 1605 1606 1607 1608 1609 1610 1611 1612 1613 1614 1615 1616 1617 1618 1619 1620 1621 1622 1623 1624 1625 0
57 -1604 1597 1598 1599 1600 1601 1602 1603 1605 1606 1607 1608 1609 1610 1611 1612 1613 1614 1615 1616 1617 1618 1619 1620 1621 1622 1623 1624 1625 0
57 -1605 1597 1598 1599 1600 1601 1602 1603 1604 1606 1607 1608 1609 1610 1611 1612 1613 1614 1615 1616 1617 1618 1619 1620 1621 1622 1623 1624 1625 0
57 -1606 1597 1598 1599 1600 1601 1602 1603 1604 1605 1607 1608 1609 1610 1611 1612 1613 1614 1615 1616 1617 1618 1619 1620 1621 1622 1623 1624 1625 0
57 -1607 1597 1598 1599 1600 1601 1602 1603 1604 1605 1606 1608 1609 1610 1611 1612 1613 1614 1615 1616 1617 1618 1619 1620 1621 1622 1623 1624 1625 0
57 -1608 1597 1598 1599 1600 1601 1602 1603 1604 1605 1606 1607 1609 1610 1611 1612 1613 1614 1615 1616 1617 1618 1619 1620 1621 1622 1623 1624 1625 0
57 -1609 1597 1598 1599 1600 1601 1602 1603 1604 1605 1606 1607 1608 1610 1611 1612 1613 1614 1615 1616 1617 1618 1619 1620 1621 1622 1623 1624 1625 0
57 -1610 1597 1598 1599 1600 1601 1602 1603 1604 1605 1606 1607 1608 1609 1611 1612 1613 1614 1615 1616 1617 1618 1619 1620 1621 1622 1623 1624 1625 0
57 -1611 1597 1598 1599 1600 1601 1602 1603 1604 1605 1606 1607 1608 1609 1610 1612 1613 1614 1615 1616 1617 1618 1619 1620 1621 1622 1623 1624 1625 0
57 -1612 1597 1598 1599 1600 1601 1602 1603 1604 1605 1606 1607 1608 1609 1610 1611 1613 1614 1615 1616 1617 1618 1619 1620 1621 1622 1623 1624 1625 0
57 -1613 1597 1598 1599 1600 1601 1602 1603 1604 1605 1606 1607 1608 1609 1610 1611 1612 1614 1615 1616 1617 1618 1619 1620 1621 1622 1623 1624 1625 0
57 -1614 1597 1598 1599 1600 1601 1602 1603 1604 1605 1606 1607 1608 1609 1610 1611 1612 1613 1615 1616 1617 1618 1619 1620 1621 1622 1623 1624 1625 0
57 -1615 1597 1598 1599 1600 1601 1602 1603 1604 1605 1606 1607 1608 1609 1610 1611 1612 1613 1614 1616 1617 1618 1619 1620 1621 1622 1623 1624 1625 0
57 -1616 1597 1598 1599 1600 1601 1602 1603 1604 1605 1606 1607 1608 1609 1610 1611 1612 1613 1614 1615 1617 1618 1619 1620 1621 1622 1623 1624 1625 0
57 -1617 1597 1598 1599 1600 1601 1602 1603 1604 1605 1606 1607 1608 1609 1610 1611 1612 1613 1614 1615 1616 1618 1619 1620 1621 1622 1623 1624 1625 0
57 -1618 1597 1598 1599 1600 1601 1602 1603 1604 1605 1606 1607 1608 1609 1610 1611 1612 1613 1614 1615 1616 1617 1619 1620 1621 1622 1623 1624 1625 0
57 -1619 1597 1598 1599 1600 1601 1602 1603 1604 1605 1606 1607 1608 1609 1610 1611 1612 1613 1614 1615 1616 1617 1618 1620 1621 1622 1623 1624 1625 0
57 -1620 1597 1598 1599 1600 1601 1602 1603 1604 1605 1606 1607 1608 1609 1610 1611 1612 1613 1614 1615 1616 1617 1618 1619 1621 1622 1623 1624 1625 0
57 -1621 1597 1598 1599 1600 1601 1602 1603 1604 1605 1606 1607 1608 1609 1610 1611 1612 1613 1614 1615 1616 1617 1618 1619 1620 1622 1623 1624 1625 0
57 -1622 1597 1598 1599 1600 1601 1602 1603 1604 1605 1606 1607 1608 1609 1610 1611 1612 1613 1614 1615 1616 1617 1618 1619 1620 1621 1623 1624 1625 0
57 -1623 1597 1598 1599 1600 1601 1602 1603 1604 1605 1606 1607 1608 1609 1610 1611 1612 1613 1614 1615 1616 1617 1618 1619 1620 1621 1622 1624 1625 0
57 -1624 1597 1598 1599 1600 1601 1602 1603 1604 1605 1606 1607 1608 1609 1610 1611 1612 1613 1614 1615 1616 1617 1618 1619 1620 1621 1622 1623 1625 0
57 -1625 1597 1598 1599 1600 1601 1602 1603 1604 1605 1606 1607 1608 1609 1610 1611 1612 1613 1614 1615 1616 1617 1618 1619 1620 1621 1622 1623 1624 0
-1626 1 0
-1626 55 0
-1 -55 1626 0
-1627 2 0
-1627 54 0
-2 -54 1627 0
-1628 3 0
-1628 53 0
-3 -53 1628 0
-1629 4 0
-1629 52 0
-4 -52 1629 0
-1630 5 0
-1630 51 0
-5 -51 1630 0
-1631 6 0
-1631 50 0
-6 -50 1631 0
-1632 7 0
-1632 49 0
-7 -49 1632 0
-1633 8 0
-1633 48 0
-8 -48 1633 0
-1634 9 0
-1634 47 0
-9 -47 1634 0
-1635 10 0
-1635 46 0
-10 -46 1635 0
-1636 11 0
-1636 45 0
-11 -45 1636 0
-1637 12 0
-1637 44 0
-12 -44 1637 0
-1638 13 0
-1638 43 0
-13 -43 1638 0
-1639 14 0
-1639 42 0
-14 -42 1639 0
-1640 15 0
-1640 41 0
-15 -41 1640 0
-1641 16 0
-1641 40 0
-16 -40 1641 0
-1642 17 0
-1642 39 0
-17 -39 1642 0
-1643 18 0
-1643 38 0
-18 -38 1643 0
-1644 19 0
-1644 37 0
-19 -37 1644 0
-1645 20 0
-1645 36 0
-20 -36 1645 0
-1646 21 0
-1646 35 0
-21 -35 1646 0
-1647 22 0
-1647 34 0
-22 -34 1647 0
-1648 23 0
-1648 33 0
-23 -33 1648 0
-1649 24 0
-1649 32 0
-24 -32 1649 0
-1650 25 0
-1650 31 0
-25 -31 1650 0
-1651 26 0
-1651 30 0
-26 -30 1651 0
-1652 27 0
-1652 29 0
-27 -29 1652 0
-1653 56 0
-1653 59 0
-56 -59 1653 0
-1654 57 0
-1654 58 0
-57 -58 1654 0
-28 1626 1627 1628 1629 1630 1631 1632 1633 1634 1635 1636 1637 1638 1639 1640 1641 1642 1643 1644 1645 1646 1647 1648 1649 1650 1651 1652 1653 1654 0
28 -1626 1627 1628 1629 1630 1631 1632 1633 1634 1635 1636 1637 1638 1639 1640 1641 1642 1643 1644 1645 1646 1647 1648 1649 1650 1651 1652 1653 1654 0
28 -1627 1626 1628 1629 1630 1631 1632 1633 1634 1635 1636 1637 1638 1639 1640 1641 1642 1643 1644 1645 1646 1647 1648 1649 1650 1651 1652 1653 1654 0
28 -1628 1626 1627 1629 1630 1631 1632 1633 1634 1635 1636 1637 1638 1639 1640 1641 1642 1643 1644 1645 1646 1647 1648 1649 1650 1651 1652 1653 1654 0
28 -1629 1626 1627 1628 1630 1631 1632 1633 1634 1635 1636 1637 1638 1639 1640 1641 1642 1643 1644 1645 1646 1647 1648 1649 1650 1651 1652 1653 1654 0
28 -1630 1626 1627 1628 1629 1631 1632 1633 1634 1635 1636 1637 1638 1639 1640 1641 1642 1643 1644 1645 1646 1647 1648 1649 1650 1651 1652 1653 1654 0
28 -1631 1626 1627 1628 1629 1630 1632 1633 1634 1635 1636 1637 1638 1639 1640 1641 1642 1643 1644 1645 1646 1647 1648 1649 1650 1651 1652 1653 1654 0
28 -1632 1626 1627 1628 1629 1630 1631 1633 1634 1635 1636 1637 1638 1639 1640 1641 1642 1643 1644 1645 1646 1647 1648 1649 1650 1651 1652 1653 1654 0
28 -1633 1626 1627 1628 1629 1630 1631 1632 1634 1635 1636 1637 1638 1639 1640 1641 1642 1643 1644 1645 1646 1647 1648 1649 1650 1651 1652 1653 1654 0
28 -1634 1626 1627 1628 1629 1630 1631 1632 1633 1635 1636 1637 1638 1639 1640 1641 1642 1643 1644 1645 1646 1647 1648 1649 1650 1651 1652 1653 1654 0
28 -1635 1626 1627 1628 1629 1630 1631 1632 1633 1634 1636 1637 1638 1639 1640 1641 1642 1643 1644 1645 1646 1647 1648 1649 1650 1651 1652 1653 1654 0
28 -1636 1626 1627 1628 1629 1630 1631 1632 1633 1634 1635 1637 1638 1639 1640 1641 1642 1643 1644 1645 1646 1647 1648 1649 1650 1651 1652 1653 1654 0
28 -1637 1626 1627 1628 1629 1630 1631 1632 1633 1634 1635 1636 1638 1639 1640 1641 1642 1643 1644 1645 1646 1647 1648 1649 1650 1651 1652 1653 1654 0
28 -1638 1626 1627 1628 1629 1630 1631 1632 1633 1634 1635 1636 1637 1639 1640 1641 1642 1643 1644 1645 1646 1647 1648 1649 1650 1651 1652 1653 1654 0
28 -1639 1626 1627 1628 1629 1630 1631 1632 1633 1634 1635 1636 1637 1638 1640 1641 1642 1643 1644 1645 1646 1647 1648 1649 1650 1651 1652 1653 1654 0
28 -1640 1626 1627 1628 1629 1630 1631 1632 1633 1634 1635 1636 1637 1638 1639 1641 1642 1643 1644 1645 1646 1647 1648 1649 1650 1651 1652 1653 1654 0
28 -1641 1626 1627 1628 1629 1630 1631 1632 1633 1634 1635 1636 1637 1638 1639 1640 1642 1643 1644 1645 1646 1647 1648 1649 1650 1651 1652 1653 1654 0
28 -1642 1626 1627 1628 1629 1630 1631 1632 1633 1634 1635 1636 1637 1638 1639 1640 1641 1643 1644 1645 1646 1647 1648 1649 1650 1651 1652 1653 1654 0
28 -1643 1626 1627 1628 1629 1630 1631 1632 1633 1634 1635 1636 1637 1638 1639 1640 1641 1642 1644 1645 1646 1647 1648 1649 1650 1651 1652 1653 1654 0
28 -1644 1626 1627 1628 1629 1630 1631 1632 1633 1634 1635 1636 1637 1638 1639 1640 1641 1642 1643 1645 1646 1647 1648 1649 1650 1651 1652 1653 1654 0
28 -1645 1626 1627 1628 1629 1630 1631 1632 1633 1634 1635 1636 1637 1638 1639 1640 1641 1642 1643 1644 1646 1647 1648 1649 1650 1651 1652 1653 1654 0
28 -1646 1626 1627 1628 1629 1630 1631 1632 1633 1634 1635 1636 1637 1638 1639 1640 1641 1642 1643 1644 1645 1647 1648 1649 1650 1651 1652 1653 1654 0
28 -1647 1626 1627 1628 1629 1630 1631 1632 1633 1634 1635 1636 1637 1638 1639 1640 1641 1642 1643 1644 1645 1646 1648 1649 1650 1651 1652 1653 1654 0
28 -1648 1626 1627 1628 1629 1630 1631 1632 1633 1634 1635 1636 1637 1638 1639 1640 1641 1642 1643 1644 1645 1646 1647 1649 1650 1651 1652 1653 1654 0
28 -1649 1626 1627 1628 1629 1630 1631 1632 1633 1634 1635 1636 1637 1638 1639 1640 1641 1642 1643 1644 1645 1646 1647 1648 1650 1651 1652 1653 1654 0
28 -1650 1626 1627 1628 1629 1630 1631 1632 1633 1634 1635 1636 1637 1638 1639 1640 1641 1642 1643 1644 1645 1646 1647 1648 1649 1651 1652 1653 1654 0
28 -1651 1626 1627 1628 1629 1630 1631 1632 1633 1634 1635 1636 1637 1638 1639 1640 1641 1642 1643 1644 1645 1646 1647 1648 1649 1650 1652 1653 1654 0
28 -1652 1626 1627 1628 1629 1630 1631 1632 1633 1634 1635 1636 1637 1638 1639 1640 1641 1642 1643 1644 1645 1646 1647 1648 1649 1650 1651 1653 1654 0
28 -1653 1626 1627 1628 1629 1630 1631 1632 1633 1634 1635 1636 1637 1638 1639 1640 1641 1642 1643 1644 1645 1646 1647 1648 1649 1650 1651 1652 1654 0
28 -1654 1626 1627 1628 1629 1630 1631 1632 1633 1634 1635 1636 1637 1638 1639 1640 1641 1642 1643 1644 1645 1646 1647 1648 1649 1650 1651 1652 1653 0
-1655 1 0
-1655 56 0
-1 -56 1655 0
-1656 2 0
-1656 55 0
-2 -55 1656 0
-1657 3 0
-1657 54 0
-3 -54 1657 0
-1658 4 0
-1658 53 0
-4 -53 1658 0
-1659 5 0
-1659 52 0
-5 -52 1659 0
-1660 6 0
-1660 51 0
-6 -51 1660 0
-1661 7 0
-1661 50 0
-7 -50 1661 0
-1662 8 0
-1662 49 0
-8 -49 1662 0
-1663 9 0
-1663 48 0
-9 -48 1663 0
-1664 10 0
-1664 47 0
-10 -47 1664 0
-1665 11 0
-1665 46 0
-11 -46 1665 0
-1666 12 0
-1666 45 0
-12 -45 1666 0
-1667 13 0
-1667 44 0
-13 -44 1667 0
-1668 14 0
-1668 43 0
-14 -43 1668 0
-1669 15 0
-1669 42 0
-15 -42 1669 0
-1670 16 0
-1670 41 0
-16 -41 1670 0
-1671 17 0
-1671 40 0
-17 -40 1671 0
-1672 18 0
-1672 39 0
-18 -39 1672 0
-1673 19 0
-1673 38 0
-19 -38 1673 0
-1674 20 0
-1674 37 0
-20 -37 1674 0
-1675 21 0
-1675 36 0
-21 -36 1675 0
-1676 22 0
-1676 35 0
-22 -35 1676 0
-1677 23 0
-1677 34 0
-23 -34 1677 0
-1678 24 0
-1678 33 0
-24 -33 1678 0
-1679 25 0
-1679 32 0
-25 -32 1679 0
-1680 26 0
-1680 31 0
-26 -31 1680 0
-1681 27 0
-1681 30 0
-27 -30 1681 0
-1682 28 0
-1682 29 0
-28 -29 1682 0
-1683 57 0
-1683 59 0
-57 -59 1683 0
-58 1655 1656 1657 1658 1659 1660 1661 1662 1663 1664 1665 1666 1667 1668 1669 1670 1671 1672 1673 1674 1675 1676 1677 1678 1679 1680 1681 1682 1683 0
58 -1655 1656 1657 1658 1659 1660 1661 1662 1663 1664 1665 1666 1667 1668 1669 1670 1671 1672 1673 1674 1675 1676 1677 1678 1679 1680 1681 1682 1683 0
58 -1656 1655 1657 1658 1659 1660 1661 1662 1663 1664 1665 1666 1667 1668 1669 1670 1671 1672 1673 1674 1675 1676 1677 1678 1679 1680 1681 1682 1683 0
58 -1657 1655 1656 1658 1659 1660 1661 1662 1663 1664 1665 1666 1667 1668 1669 1670 1671 1672 1673 1674 1675 1676 1677 1678 1679 1680 1681 1682 1683 0
58 -1658 1655 1656 1657 1659 1660 1661 1662 1663 1664 1665 1666 1667 1668 1669 1670 1671 1672 1673 1674 1675 1676 1677 1678 1679 1680 1681 1682 1683 0
58 -1659 1655 1656 1657 1658 1660 1661 1662 1663 1664 1665 1666 1667 1668 1669 1670 1671 1672 1673 1674 1675 1676 1677 1678 1679 1680 1681 1682 1683 0
58 -1660 1655 1656 1657 1658 1659 1661 1662 1663 1664 1665 1666 1667 1668 1669 1670 1671 1672 1673 1674 1675 1676 1677 1678 1679 1680 1681 1682 1683 0
58 -1661 1655 1656 1657 1658 1659 1660 1662 1663 1664 1665 1666 1667 1668 1669 1670 1671 1672 1673 1674 1675 1676 1677 1678 1679 1680 1681 1682 1683 0
58 -1662 1655 1656 1657 1658 1659 1660 1661 1663 1664 1665 1666 1667 1668 1669 1670 1671 1672 1673 1674 1675 1676 1677 1678 1679 1680 1681 1682 1683 0
58 -1663 1655 1656 1657 1658 1659 1660 1661 1662 1664 1665 1666 1667 1668 1669 1670 1671 1672 1673 1674 1675 1676 1677 1678 1679 1680 1681 1682 1683 0
58 -1664 1655 1656 1657 1658 1659 1660 1661 1662 1663 1665 1666 1667 1668 1669 1670 1671 1672 1673 1674 1675 1676 1677 1678 1679 1680 1681 1682 1683 0
58 -1665 1655 1656 1657 1658 1659 1660 1661 1662 1663 1664 1666 1667 1668 1669 1670 1671 1672 1673 1674 1675 1676 1677 1678 1679 1680 1681 1682 1683 0
58 -1666 1655 1656 1657 1658 1659 1660 1661 1662 1663 1664 1665 1667 1668 1669 1670 1671 1672 1673 1674 1675 1676 1677 1678 1679 1680 1681 1682 1683 0
58 -1667 1655 1656 1657 1658 1659 1660 1661 1662 1663 1664 1665 1666 1668 1669 1670 1671 1672 1673 1674 1675 1676 1677 1678 1679 1680 1681 1682 1683 0
58 -1668 1655 1656 1657 1658 1659 1660 1661 1662 1663 1664 1665 1666 1667 1669 1670 1671 1672 1673 1674 1675 1676 1677 1678 1679 1680 1681 1682 1683 0
58 -1669 1655 1656 1657 1658 1659 1660 1661 1662 1663 1664 1665 1666 1667 1668 1670 1671 1672 1673 1674 1675 1676 1677 1678 1679 1680 1681 1682 1683 0
58 -1670 1655 1656 1657 1658 1659 1660 1661 1662 1663 1664 1665 1666 1667 1668 1669 1671 1672 1673 1674 1675 1676 1677 1678 1679 1680 1681 1682 1683 0
58 -1671 1655 1656 1657 1658 1659 1660 1661 1662 1663 1664 1665 1666 1667 1668 1669 1670 1672 1673 1674 1675 1676 1677 1678 1679 1680 1681 1682 1683 0
58 -1672 1655 1656 1657 1658 1659 1660 1661 1662 1663 1664 1665 1666 1667 1668 1669 1670 1671 1673 1674 1675 1676 1677 1678 1679 1680 1681 1682 1683 0
58 -1673 1655 1656 1657 1658 1659 1660 1661 1662 1663 1664 1665 1666 1667 1668 1669 1670 1671 1672 1674 1675 1676 1677 1678 1679 1680 1681 1682 1683 0
58 -1674 1655 1656 1657 1658 1659 1660 1661 1662 1663 1664 1665 1666 1667 1668 1669 1670 1671 1672 1673 1675 1676 1677 1678 1679 1680 1681 1682 1683 0
58 -1675 1655 1656 1657 1658 1659 1660 1661 1662 1663 1664 1665 1666 1667 1668 1669 1670 1671 1672 1673 1674 1676 1677 1678 1679 1680 1681 1682 1683 0
58 -1676 1655 1656 1657 1658 1659 1660 1661 1662 1663 1664 1665 1666 1667 1668 1669 1670 1671 1672 1673 1674 1675 1677 1678 1679 1680 1681 1682 1683 0
58 -1677 1655 1656 1657 1658 1659 1660 1661 1662 1663 1664 1665 1666 1667 1668 1669 1670 1671 1672 1673 1674 1675 1676 1678 1679 1680 1681 1682 1683 0
58 -1678 1655 1656 1657 1658 1659 1660 1661 1662 1663 1664 1665 1666 1667 1668 1669 1670 1671 1672 1673 1674 1675 1676 1677 1679 1680 1681 1682 1683 0
58 -1679 1655 1656 1657 1658 1659 1660 1661 1662 1663 1664 1665 1666 1667 1668 1669 1670 1671 1672 1673 1674 1675 1676 1677 1678 1680 1681 1682 1683 0
58 -1680 1655 1656 1657 1658 1659 1660 1661 1662 1663 1664 1665 1666 1667 1668 1669 1670 1671 1672 1673 1674 1675 1676 1677 1678 1679 1681 1682 1683 0
58 -1681 1655 1656 1657 1658 1659 1660 1661 1662 1663 1664 1665 1666 1667 1668 1669 1670 1671 1672 1673 1674 1675 1676 1677 1678 1679 1680 1682 1683 0
58 -1682 1655 1656 1657 1658 1659 1660 1661 1662 1663 1664 1665 1666 1667 1668 1669 1670 1671 1672 1673 1674 1675 1676 1677 1678 1679 1680 1681 1683 0
58 -1683 1655 1656 1657 1658 1659 1660 1661 1662 1663 1664 1665 1666 1667 1668 1669 1670 1671 1672 1673 1674 1675 1676 1677 1678 1679 1680 1681 1682 0
-1684 1 0
-1684 57 0
-1 -57 1684 0
-1685 2 0
-1685 56 0
-2 -56 1685 0
-1686 3 0
-1686 55 0
-3 -55 1686 0
-1687 4 0
-1687 54 0
-4 -54 1687 0
-1688 5 0
-1688 53 0
-5 -53 1688 0
-1689 6 0
-1689 52 0
-6 -52 1689 0
-1690 7 0
-1690 51 0
-7 -51 1690 0
-1691 8 0
-1691 50 0
-8 -50 1691 0
-1692 9 0
-1692 49 0
-9 -49 1692 0
-1693 10 0
-1693 48 0
-10 -48 1693 0
-1694 11 0
-1694 47 0
-11 -47 1694 0
-1695 12 0
-1695 46 0
-12 -46 1695 0
-1696 13 0
-1696 45 0
-13 -45 1696 0
-1697 14 0
-1697 44 0
-14 -44 1697 0
-1698 15 0
-1698 43 0
-15 -43 1698 0
-1699 16 0
-1699 42 0
-16 -42 1699 0
-1700 17 0
-1700 41 0
-17 -41 1700 0
-1701 18 0
-1701 40 0
-18 -40 1701 0
-1702 19 0
-1702 39 0
-19 -39 1702 0
-1703 20 0
-1703 38 0
-20 -38 1703 0
-1704 21 0
-1704 37 0
-21 -37 1704 0
-1705 22 0
-1705 36 0
-22 -36 1705 0
-1706 23 0
-1706 35 0
-23 -35 1706 0
-1707 24 0
-1707 34 0
-24 -34 1707 0
-1708 25 0
-1708 33 0
-25 -33 1708 0
-1709 26 0
-1709 32 0
-26 -32 1709 0
-1710 27 0
-1710 31 0
-27 -31 1710 0
-1711 28 0
-1711 30 0
-28 -30 1711 0
-1712 58 0
-1712 59 0
-58 -59 1712 0
-29 1684 1685 1686 1687 1688 1689 1690 1691 1692 1693 1694 1695 1696 1697 1698 1699 1700 1701 1702 1703 1704 1705 1706 1707 1708 1709 1710 1711 1712 0
29 -1684 1685 1686 1687 1688 1689 1690 1691 1692 1693 1694 1695 1696 1697 1698 1699 1700 1701 1702 1703 1704 1705 1706 1707 1708 1709 1710 1711 1712 0
29 -1685 1684 1686 1687 1688 1689 1690 1691 1692 1693 1694 1695 1696 1697 1698 1699 1700 1701 1702 1703 1704 1705 1706 1707 1708 1709 1710 1711 1712 0
29 -1686 1684 1685 1687 1688 1689 1690 1691 1692 1693 1694 1695 1696 1697 1698 1699 1700 1701 1702 1703 1704 1705 1706 1707 1708 1709 1710 1711 1712 0
29 -1687 1684 1685 1686 1688 1689 1690 1691 1692 1693 1694 1695 1696 1697 1698 1699 1700 1701 1702 1703 1704 1705 1706 1707 1708 1709 1710 1711 1712 0
29 -1688 1684 1685 1686 1687 1689 1690 1691 1692 1693 1694 1695 1696 1697 1698 1699 1700 1701 1702 1703 1704 1705 1706 1707 1708 1709 1710 1711 1712 0
29 -1689 1684 1685 1686 1687 1688 1690 1691 1692 1693 1694 1695 1696 1697 1698 1699 1700 1701 1702 1703 1704 1705 1706 1707 1708 1709 1710 1711 1712 0
29 -1690 1684 1685 1686 1687 1688 1689 1691 1692 1693 1694 1695 1696 1697 1698 1699 1700 1701 1702 1703 1704 1705 1706 1707 1708 1709 1710 1711 1712 0
29 -1691 1684 1685 1686 1687 1688 1689 1690 1692 1693 1694 1695 1696 1697 1698 1699 1700 1701 1702 1703 1704 1705 1706 1707 1708 1709 1710 1711 1712 0
29 -1692 1684 1685 1686 1687 1688 1689 1690 1691 1693 1694 1695 1696 1697 1698 1699 1700 1701 1702 1703 1704 1705 1706 1707 1708 1709 1710 1711 1712 0
29 -1693 1684 1685 1686 1687 1688 1689 1690 1691 1692 1694 1695 1696 1697 1698 1699 1700 1701 1702 1703 1704 1705 1706 1707 1708 1709 1710 1711 1712 0
29 -1694 1684 1685 1686 1687 1688 1689 1690 1691 1692 1693 1695 1696 1697 1698 1699 1700 1701 1702 1703 1704 1705 1706 1707 1708 1709 1710 1711 1712 0
29 -1695 1684 1685 1686 1687 1688 1689 1690 1691 1692 1693 1694 1696 1697 1698 1699 1700 1701 1702 1703 1704 1705 1706 1707 1708 1709 1710 1711 1712 0
29 -1696 1684 1685 1686 1687 1688 1689 1690 1691 1692 1693 1694 1695 1697 1698 1699 1700 1701 1702 1703 1704 1705 1706 1707 1708 1709 1710 1711 1712 0
29 -1697 1684 1685 1686 1687 1688 1689 1690 1691 1692 1693 1694 1695 1696 1698 1699 1700 1701 1702 1703 1704 1705 1706 1707 1708 1709 1710 1711 1712 0
29 -1698 1684 1685 1686 1687 1688 1689 1690 1691 1692 1693 1694 1695 1696 1697 1699 1700 1701 1702 1703 1704 1705 1706 1707 1708 1709 1710 1711 1712 0
29 -1699 1684 1685 1686 1687 1688 1689 1690 1691 1692 1693 1694 1695 1696 1697 1698 1700 1701 1702 1703 1704 1705 1706 1707 1708 1709 1710 1711 1712 0
29 -1700 1684 1685 1686 1687 1688 1689 1690 1691 1692 1693 1694 1695 1696 1697 1698 1699 1701 1702 1703 1704 1705 1706 1707 1708 1709 1710 1711 1712 0
29 -1701 1684 1685 1686 1687 1688 1689 1690 1691 1692 1693 1694 1695 1696 1697 1698 1699 1700 1702 1703 1704 1705 1706 1707 1708 1709 1710 1711 1712 0
29 -1702 1684 1685 1686 1687 1688 1689 1690 1691 1692 1693 1694 1695 1696 1697 1698 1699 1700 1701 1703 1704 1705 1706 1707 1708 1709 1710 1711 1712 0
29 -1703 1684 1685 1686 1687 1688 1689 1690 1691 1692 1693 1694 1695 1696 1697 1698 1699 1700 1701 1702 1704 1705 1706 1707 1708 1709 1710 1711 1712 0
29 -1704 1684 1685 1686 1687 1688 1689 1690 1691 1692 1693 1694 1695 1696 1697 1698 1699 1700 1701 1702 1703 1705 1706 1707 1708 1709 1710 1711 1712 0
29 -1705 1684 1685 1686 1687 1688 1689 1690 1691 1692 1693 1694 1695 1696 1697 1698 1699 1700 1701 1702 1703 1704 1706 1707 1708 1709 1710 1711 1712 0
29 -1706 1684 1685 1686 1687 1688 1689 1690 1691 1692 1693 1694 1695 1696 1697 1698 1699 1700 1701 1702 1703 1704 1705 1707 1708 1709 1710 1711 1712 0
29 -1707 1684 1685 1686 1687 1688 1689 1690 1691 1692 1693 1694 1695 1696 1697 1698 1699 1700 1701 1702 1703 1704 1705 1706 1708 1709 1710 1711 1712 0
29 -1708 1684 1685 1686 1687 1688 1689 1690 1691 1692 1693 1694 1695 1696 1697 1698 1699 1700 1701 1702 1703 1704 1705 1706 1707 1709 1710 1711 1712 0
29 -1709 1684 1685 1686 1687 1688 1689 1690 1691 1692 1693 1694 1695 1696 1697 1698 1699 1700 1701 1702 1703 1704 1705 1706 1707 1708 1710 1711 1712 0
29 -1710 1684 1685 1686 1687 1688 1689 1690 1691 1692 1693 1694 1695 1696 1697 1698 1699 1700 1701 1702 1703 1704 1705 1706 1707 1708 1709 1711 1712 0
29 -1711 1684 1685 1686 1687 1688 1689 1690 1691 1692 1693 1694 1695 1696 1697 1698 1699 1700 1701 1702 1703 1704 1705 1706 1707 1708 1709 1710 1712 0
29 -1712 1684 1685 1686 1687 1688 1689 1690 1691 1692 1693 1694 1695 1696 1697 1698 1699 1700 1701 1702 1703 1704 1705 1706 1707 1708 1709 1710 1711 0
-1713 1 0
-1713 58 0
-1 -58 1713 0
-1714 2 0
-1714 57 0
-2 -57 1714 0
-1715 3 0
-1715 56 0
-3 -56 1715 0
-1716 4 0
-1716 55 0
-4 -55 1716 0
-1717 5 0
-1717 54 0
-5 -54 1717 0
-1718 6 0
-1718 53 0
-6 -53 1718 0
-1719 7 0
-1719 52 0
-7 -52 1719 0
-1720 8 0
-1720 51 0
-8 -51 1720 0
-1721 9 0
-1721 50 0
-9 -50 1721 0
-1722 10 0
-1722 49 0
-10 -49 1722 0
-1723 11 0
-1723 48 0
-11 -48 1723 0
-1724 12 0
-1724 47 0
-12 -47 1724 0
-1725 13 0
-1725 46 0
-13 -46 1725 0
-1726 14 0
-1726 45 0
-14 -45 1726 0
-1727 15 0
-1727 44 0
-15 -44 1727 0
-1728 16 0
-1728 43 0
-16 -43 1728 0
-1729 17 0
-1729 42 0
-17 -42 1729 0
-1730 18 0
-1730 41 0
-18 -41 1730 0
-1731 19 0
-1731 40 0
-19 -40 1731 0
-1732 20 0
-1732 39 0
-20 -39 1732 0
-1733 21 0
-1733 38 0
-21 -38 1733 0
-1734 22 0
-1734 37 0
-22 -37 1734 0
-1735 23 0
-1735 36 0
-23 -36 1735 0
-1736 24 0
-1736 35 0
-24 -35 1736 0
-1737 25 0
-1737 34 0
-25 -34 1737 0
-1738 26 0
-1738 33 0
-26 -33 1738 0
-1739 27 0
-1739 32 0
-27 -32 1739 0
-1740 28 0
-1740 31 0
-28 -31 1740 0
-1741 29 0
-1741 30 0
-29 -30 1741 0
-59 1713 1714 1715 1716 1717 1718 1719 1720 1721 1722 1723 1724 1725 1726 1727 1728 1729 1730 1731 1732 1733 1734 1735 1736 1737 1738 1739 1740 1741 0
59 -1713 1714 1715 1716 1717 1718 1719 1720 1721 1722 1723 1724 1725 1726 1727 1728 1729 1730 1731 1732 1733 1734 1735 1736 1737 1738 1739 1740 1741 0
59 -1714 1713 1715 1716 1717 1718 1719 1720 1721 1722 1723 1724 1725 1726 1727 1728 1729 1730 1731 1732 1733 1734 1735 1736 1737 1738 1739 1740 1741 0
59 -1715 1713 1714 1716 1717 1718 1719 1720 1721 1722 1723 1724 1725 1726 1727 1728 1729 1730 1731 1732 1733 1734 1735 1736 1737 1738 1739 1740 1741 0
59 -1716 1713 1714 1715 1717 1718 1719 1720 1721 1722 1723 1724 1725 1726 1727 1728 1729 1730 1731 1732 1733 1734 1735 1736 1737 1738 1739 1740 1741 0
59 -1717 1713 1714 1715 1716 1718 1719 1720 1721 1722 1723 1724 1725 1726 1727 1728 1729 1730 1731 1732 1733 1734 1735 1736 1737 1738 1739 1740 1741 0
59 -1718 1713 1714 1715 1716 1717 1719 1720 1721 1722 1723 1724 1725 1726 1727 1728 1729 1730 1731 1732 1733 1734 1735 1736 1737 1738 1739 1740 1741 0
59 -1719 1713 1714 1715 1716 1717 1718 1720 1721 1722 1723 1724 1725 1726 1727 1728 1729 1730 1731 1732 1733 1734 1735 1736 1737 1738 1739 1740 1741 0
59 -1720 1713 1714 1715 1716 1717 1718 1719 1721 1722 1723 1724 1725 1726 1727 1728 1729 1730 1731 1732 1733 1734 1735 1736 1737 1738 1739 1740 1741 0
59 -1721 1713 1714 1715 1716 1717 1718 1719 1720 1722 1723 1724 1725 1726 1727 1728 1729 1730 1731 1732 1733 1734 1735 1736 1737 1738 1739 1740 1741 0
59 -1722 1713 1714 1715 1716 1717 1718 1719 1720 1721 1723 1724 1725 1726 1727 1728 1729 1730 1731 1732 1733 1734 1735 1736 1737 1738 1739 1740 1741 0
59 -1723 1713 1714 1715 1716 1717 1718 1719 1720 1721 1722 1724 1725 1726 1727 1728 1729 1730 1731 1732 1733 1734 1735 1736 1737 1738 1739 1740 1741 0
59 -1724 1713 1714 1715 1716 1717 1718 1719 1720 1721 1722 1723 1725 1726 1727 1728 1729 1730 1731 1732 1733 1734 1735 1736 1737 1738 1739 1740 1741 0
59 -1725 1713 1714 1715 1716 1717 1718 1719 1720 1721 1722 1723 1724 1726 1727 1728 1729 1730 1731 1732 1733 1734 1735 1736 1737 1738 1739 1740 1741 0
59 -1726 1713 1714 1715 1716 1717 1718 1719 1720 1721 1722 1723 1724 1725 1727 1728 1729 1730 1731 1732 1733 1734 1735 1736 1737 1738 1739 1740 1741 0
59 -1727 1713 1714 1715 1716 1717 1718 1719 1720 1721 1722 1723 1724 1725 1726 1728 1729 1730 1731 1732 1733 1734 1735 1736 1737 1738 1739 1740 1741 0
59 -1728 1713 1714 1715 1716 1717 1718 1719 1720 1721 1722 1723 1724 1725 1726 1727 1729 1730 1731 1732 1733 1734 1735 1736 1737 1738 1739 1740 1741 0
59 -1729 1713 1714 1715 1716 1717 1718 1719 1720 1721 1722 1723 1724 1725 1726 1727 1728 1730 1731 1732 1733 1734 1735 1736 1737 1738 1739 1740 1741 0
59 -1730 1713 1714 1715 1716 1717 1718 1719 1720 1721 1722 1723 1724 1725 1726 1727 1728 1729 1731 1732 1733 1734 1735 1736 1737 1738 1739 1740 1741 0
59 -1731 1713 1714 1715 1716 1717 1718 1719 1720 1721 1722 1723 1724 1725 1726 1727 1728 1729 1730 1732 1733 1734 1735 1736 1737 1738 1739 1740 1741 0
59 -1732 1713 1714 1715 1716 1717 1718 1719 1720 1721 1722 1723 1724 1725 1726 1727 1728 1729 1730 1731 1733 1734 1735 1736 1737 1738 1739 1740 1741 0
59 -1733 1713 1714 1715 1716 1717 1718 1719 1720 1721 1722 1723 1724 1725 1726 1727 1728 1729 1730 1731 1732 1734 1735 1736 1737 1738 1739 1740 1741 0
59 -1734 1713 1714 1715 1716 1717 1718 1719 1720 1721 1722 1723 1724 1725 1726 1727 1728 1729 1730 1731 1732 1733 1735 1736 1737 1738 1739 1740 1741 0
59 -1735 1713 1714 1715 1716 1717 1718 1719 1720 1721 1722 1723 1724 1725 1726 1727 1728 1729 1730 1731 1732 1733 1734 1736 1737 1738 1739 1740 1741 0
59 -1736 1713 1714 1715 1716 1717 1718 1719 1720 1721 1722 1723 1724 1725 1726 1727 1728 1729 1730 1731 1732 1733 1734 1735 1737 1738 1739 1740 1741 0
59 -1737 1713 1714 1715 1716 1717 1718 1719 1720 1721 1722 1723 1724 1725 1726 1727 1728 1729 1730 1731 1732 1733 1734 1735 1736 1738 1739 1740 1741 0
59 -1738 1713 1714 1715 1716 1717 1718 1719 1720 1721 1722 1723 1724 1725 1726 1727 1728 1729 1730 1731 1732 1733 1734 1735 1736 1737 1739 1740 1741 0
59 -1739 1713 1714 1715 1716 1717 1718 1719 1720 1721 1722 1723 1724 1725 1726 1727 1728 1729 1730 1731 1732 1733 1734 1735 1736 1737 1738 1740 1741 0
59 -1740 1713 1714 1715 1716 1717 1718 1719 1720 1721 1722 1723 1724 1725 1726 1727 1728 1729 1730 1731 1732 1733 1734 1735 1736 1737 1738 1739 1741 0
59 -1741 1713 1714 1715 1716 1717 1718 1719 1720 1721 1722 1723 1724 1725 1726 1727 1728 1729 1730 1731 1732 1733 1734 1735 1736 1737 1738 1739 1740 0
-1742 1 0
-1742 59 0
-1 -59 1742 0
-1743 2 0
-1743 58 0
-2 -58 1743 0
-1744 3 0
-1744 57 0
-3 -57 1744 0
-1745 4 0
-1745 56 0
-4 -56 1745 0
-1746 5 0
-1746 55 0
-5 -55 1746 0
-1747 6 0
-1747 54 0
-6 -54 1747 0
-1748 7 0
-1748 53 0
-7 -53 1748 0
-1749 8 0
-1749 52 0
-8 -52 1749 0
-1750 9 0
-1750 51 0
-9 -51 1750 0
-1751 10 0
-1751 50 0
-10 -50 1751 0
-1752 11 0
-1752 49 0
-11 -49 1752 0
-1753 12 0
-1753 48 0
-12 -48 1753 0
-1754 13 0
-1754 47 0
-13 -47 1754 0
-1755 14 0
-1755 46 0
-14 -46 1755 0
-1756 15 0
-1756 45 0
-15 -45 1756 0
-1757 16 0
-1757 44 0
-16 -44 1757 0
-1758 17 0
-1758 43 0
-17 -43 1758 0
-1759 18 0
-1759 42 0
-18 -42 1759 0
-1760 19 0
-1760 41 0
-19 -41 1760 0
-1761 20 0
-1761 40 0
-20 -40 1761 0
-1762 21 0
-1762 39 0
-21 -39 1762 0
-1763 22 0
-1763 38 0
-22 -38 1763 0
-1764 23 0
-1764 37 0
-23 -37 1764 0
-1765 24 0
-1765 36 0
-24 -36 1765 0
-1766 25 0
-1766 35 0
-25 -35 1766 0
-1767 26 0
-1767 34 0
-26 -34 1767 0
-1768 27 0
-1768 33 0
-27 -33 1768 0
-1769 28 0
-1769 32 0
-28 -32 1769 0
-1770 29 0
-1770 31 0
-29 -31 1770 0
-30 1742 1743 1744 1745 1746 1747 1748 1749 1750 1751 1752 1753 1754 1755 1756 1757 1758 1759 1760 1761 1762 1763 1764 1765 1766 1767 1768 1769 1770 0
30 -1742 1743 1744 1745 1746 1747 1748 1749 1750 1751 1752 1753 1754 1755 1756 1757 1758 1759 1760 1761 1762 1763 1764 1765 1766 1767 1768 1769 1770 0
30 -1743 1742 1744 1745 1746 1747 1748 1749 1750 1751 1752 1753 1754 1755 1756 1757 1758 1759 1760 1761 1762 1763 1764 1765 1766 1767 1768 1769 1770 0
30 -1744 1742 1743 1745 1746 1747 1748 1749 1750 1751 1752 1753 1754 1755 1756 1757 1758 1759 1760 1761 1762 1763 1764 1765 1766 1767 1768 1769 1770 0
30 -1745 1742 1743 1744 1746 1747 1748 1749 1750 1751 1752 1753 1754 1755 1756 1757 1758 1759 1760 1761 1762 1763 1764 1765 1766 1767 1768 1769 1770 0
30 -1746 1742 1743 1744 1745 1747 1748 1749 1750 1751 1752 1753 1754 1755 1756 1757 1758 1759 1760 1761 1762 1763 1764 1765 1766 1767 1768 1769 1770 0
30 -1747 1742 1743 1744 1745 1746 1748 1749 1750 1751 1752 1753 1754 1755 1756 1757 1758 1759 1760 1761 1762 1763 1764 1765 1766 1767 1768 1769 1770 0
30 -1748 1742 1743 1744 1745 1746 1747 1749 1750 1751 1752 1753 1754 1755 1756 1757 1758 1759 1760 1761 1762 1763 1764 1765 1766 1767 1768 1769 1770 0
30 -1749 1742 1743 1744 1745 1746 1747 1748 1750 1751 1752 1753 1754 1755 1756 1757 1758 1759 1760 1761 1762 1763 1764 1765 1766 1767 1768 1769 1770 0
30 -1750 1742 1743 1744 1745 1746 1747 1748 1749 1751 1752 1753 1754 1755 1756 1757 1758 1759 1760 1761 1762 1763 1764 1765 1766 1767 1768 1769 1770 0
30 -1751 1742 1743 1744 1745 1746 1747 1748 1749 1750 1752 1753 1754 1755 1756 1757 1758 1759 1760 1761 1762 1763 1764 1765 1766 1767 1768 1769 1770 0
30 -1752 1742 1743 1744 1745 1746 1747 1748 1749 1750 1751 1753 1754 1755 1756 1757 1758 1759 1760 1761 1762 1763 1764 1765 1766 1767 1768 1769 1770 0
30 -1753 1742 1743 1744 1745 1746 1747 1748 1749 1750 1751 1752 1754 1755 1756 1757 1758 1759 1760 1761 1762 1763 1764 1765 1766 1767 1768 1769 1770 0
30 -1754 1742 1743 1744 1745 1746 1747 1748 1749 1750 1751 1752 1753 1755 1756 1757 1758 1759 1760 1761 1762 1763 1764 1765 1766 1767 1768 1769 1770 0
30 -1755 1742 1743 1744 1745 1746 1747 1748 1749 1750 1751 1752 1753 1754 1756 1757 1758 1759 1760 1761 1762 1763 1764 1765 1766 1767 1768 1769 1770 0
30 -1756 1742 1743 1744 1745 1746 1747 1748 1749 1750 1751 1752 1753 1754 1755 1757 1758 1759 1760 1761 1762 1763 1764 1765 1766 1767 1768 1769 1770 0
30 -1757 1742 1743 1744 1745 1746 1747 1748 1749 1750 1751 1752 1753 1754 1755 1756 1758 1759 1760 1761 1762 1763 1764 1765 1766 1767 1768 1769 1770 0
30 -1758 1742 1743 1744 1745 1746 1747 1748 1749 1750 1751 1752 1753 1754 1755 1756 1757 1759 1760 1761 1762 1763 1764 1765 1766 1767 1768 1769 1770 0
30 -1759 1742 1743 1744 1745 1746 1747 1748 1749 1750 1751 1752 1753 1754 1755 1756 1757 1758 1760 1761 1762 1763 1764 1765 1766 1767 1768 1769 1770 0
30 -1760 1742 1743 1744 1745 1746 1747 1748 1749 1750 1751 1752 1753 1754 1755 1756 1757 1758 1759 1761 1762 1763 1764 1765 1766 1767 1768 1769 1770 0
30 -1761 1742 1743 1744 1745 1746 1747 1748 1749 1750 1751 1752 1753 1754 1755 1756 1757 1758 1759 1760 1762 1763 1764 1765 1766 1767 1768 1769 1770 0
30 -1762 1742 1743 1744 1745 1746 1747 1748 1749 1750 1751 1752 1753 1754 1755 1756 1757 1758 1759 1760 1761 1763 1764 1765 1766 1767 1768 1769 1770 0
30 -1763 1742 1743 1744 1745 1746 1747 1748 1749 1750 1751 1752 1753 1754 1755 1756 1757 1758 1759 1760 1761 1762 1764 1765 1766 1767 1768 1769 1770 0
30 -1764 1742 1743 1744 1745 1746 1747 1748 1749 1750 1751 1752 1753 1754 1755 1756 1757 1758 1759 1760 1761 1762 1763 1765 1766 1767 1768 1769 1770 0
30 -1765 1742 1743 1744 1745 1746 1747 1748 1749 1750 1751 1752 1753 1754 1755 1756 1757 1758 1759 1760 1761 1762 1763 1764 1766 1767 1768 1769 1770 0
30 -1766 1742 1743 1744 1745 1746 1747 1748 1749 1750 1751 1752 1753 1754 1755 1756 1757 1758 1759 1760 1761 1762 1763 1764 1765 1767 1768 1769 1770 0
30 -1767 1742 1743 1744 1745 1746 1747 1748 1749 1750 1751 1752 1753 1754 1755 1756 1757 1758 1759 1760 1761 1762 1763 1764 1765 1766 1768 1769 1770 0
30 -1768 1742 1743 1744 1745 1746 1747 1748 1749 1750 1751 1752 1753 1754 1755 1756 1757 1758 1759 1760 1761 1762 1763 1764 1765 1766 1767 1769 1770 0
30 -1769 1742 1743 1744 1745 1746 1747 1748 1749 1750 1751 1752 1753 1754 1755 1756 1757 1758 1759 1760 1761 1762 1763 1764 1765 1766 1767 1768 1770 0
30 -1770 1742 1743 1744 1745 1746 1747 1748 1749 1750 1751 1752 1753 1754 1755 1756 1757 1758 1759 1760 1761 1762 1763 1764 1765 1766 1767 1768 1769 0
-1 1771 0
-1772 0
-1773 0
-1774 0
-1775 0
-1776 0
-1777 0
-1778 0
-1779 0
-1780 0
-1781 0
-1782 0
-1783 0
-1784 0
-2 1785 0
-1771 1785 0
-2 -1771 1786 0
-1772 1786 0
-2 -1772 1787 0
-1773 1787 0
-2 -1773 1788 0
-1774 1788 0
-2 -1774 1789 0
-1775 1789 0
-2 -1775 1790 0
-1776 1790 0
-2 -1776 1791 0
-1777 1791 0
-2 -1777 1792 0
-1778 1792 0
-2 -1778 1793 0
-1779 1793 0
-2 -1779 1794 0
-1780 1794 0
-2 -1780 1795 0
-1781 1795 0
-2 -1781 1796 0
-1782 1796 0
-2 -1782 1797 0
-1783 1797 0
-2 -1783 1798 0
-1784 1798 0
-2 -1784 0
-3 1799 0
-1785 1799 0
-3 -1785 1800 0
-1786 1800 0
-3 -1786 1801 0
-1787 1801 0
-3 -1787 1802 0
-1788 1802 0
-3 -1788 1803 0
-1789 1803 0
-3 -1789 1804 0
-1790 1804 0
-3 -1790 1805 0
-1791 1805 0
-3 -1791 1806 0
-1792 1806 0
-3 -1792 1807 0
-1793 1807 0
-3 -1793 1808 0
-1794 1808 0
-3 -1794 1809 0
-1795 1809 0
-3 -1795 1810 0
-1796 1810 0
-3 -1796 1811 0
-1797 1811 0
-3 -1797 1812 0
-1798 1812 0
-3 -1798 0
-4 1813 0
-1799 1813 0
-4 -1799 1814 0
-1800 1814 0
-4 -1800 1815 0
-1801 1815 0
-4 -1801 1816 0
-1802 1816 0
-4 -1802 1817 0
-1803 1817 0
-4 -1803 1818 0
-1804 1818 0
-4 -1804 1819 0
-1805 1819 0
-4 -1805 1820 0
-1806 1820 0
-4 -1806 1821 0
-1807 1821 0
-4 -1807 1822 0
-1808 1822 0
-4 -1808 1823 0
-1809 1823 0
-4 -1809 1824 0
-1810 1824 0
-4 -1810 1825 0
-1811 1825 0
-4 -1811 1826 0
-1812 1826 0
-4 -1812 0
-5 1827 0
-1813 1827 0
-5 -1813 1828 0
-1814 1828 0
-5 -1814 1829 0
-1815 1829 0
-5 -1815 1830 0
-1816 1830 0
-5 -1816 1831 0
-1817 1831 0
-5 -1817 1832 0
-1818 1832 0
-5 -1818 1833 0
-1819 1833 0
-5 -1819 1834 0
-1820 1834 0
-5 -1820 1835 0
-1821 1835 0
-5 -1821 1836 0
-1822 1836 0
-5 -1822 1837 0
-1823 1837 0
-5 -1823 1838 0
-1824 1838 0
-5 -1824 1839 0
-1825 1839 0
-5 -1825 1840 0
-1826 1840 0
-5 -1826 0
-6 1841 0
-1827 1841 0
-6 -1827 1842 0
-1828 1842 0
-6 -1828 1843 0
-1829 1843 0
-6 -1829 1844 0
-1830 1844 0
-6 -1830 1845 0
-1831 1845 0
-6 -1831 1846 0
-1832 1846 0
-6 -1832 1847 0
-1833 1847 0
-6 -1833 1848 0
-1834 1848 0
-6 -1834 1849 0
-1835 1849 0
-6 -1835 1850 0
-1836 1850 0
-6 -1836 1851 0
-1837 1851 0
-6 -1837 1852 0
-1838 1852 0
-6 -1838 1853 0
-1839 1853 0
-6 -1839 1854 0
-1840 1854 0
-6 -1840 0
-7 1855 0
-1841 1855 0
-7 -1841 1856 0
-1842 1856 0
-7 -1842 1857 0
-1843 1857 0
-7 -1843 1858 0
-1844 1858 0
-7 -1844 1859 0
-1845 1859 0
-7 -1845 1860 0
-1846 1860 0
-7 -1846 1861 0
-1847 1861 0
-7 -1847 1862 0
-1848 1862 0
-7 -1848 1863 0
-1849 1863 0
-7 -1849 1864 0
-1850 1864 0
-7 -1850 1865 0
-1851 1865 0
-7 -1851 1866 0
-1852 1866 0
-7 -1852 1867 0
-1853 1867 0
-7 -1853 1868 0
-1854 1868 0
-7 -1854 0
-8 1869 0
-1855 1869 0
-8 -1855 1870 0
-1856 1870 0
-8 -1856 1871 0
-1857 1871 0
-8 -1857 1872 0
-1858 1872 0
-8 -1858 1873 0
-1859 1873 0
-8 -1859 1874 0
-1860 1874 0
-8 -1860 1875 0
-1861 1875 0
-8 -1861 1876 0
-1862 1876 0
-8 -1862 1877 0
-1863 1877 0
-8 -1863 1878 0
-1864 1878 0
-8 -1864 1879 0
-1865 1879 0
-8 -1865 1880 0
-1866 1880 0
-8 -1866 1881 0
-1867 1881 0
-8 -1867 1882 0
-1868 1882 0
-8 -1868 0
-9 1883 0
-1869 1883 0
-9 -1869 1884 0
-1870 1884 0
-9 -1870 1885 0
-1871 1885 0
-9 -1871 1886 0
-1872 1886 0
-9 -1872 1887 0
-1873 1887 0
-9 -1873 1888 0
-1874 1888 0
-9 -1874 1889 0
-1875 1889 0
-9 -1875 1890 0
-1876 1890 0
-9 -1876 1891 0
-1877 1891 0
-9 -1877 1892 0
-1878 1892 0
-9 -1878 1893 0
-1879 1893 0
-9 -1879 1894 0
-1880 1894 0
-9 -1880 1895 0
-1881 1895 0
-9 -1881 1896 0
-1882 1896 0
-9 -1882 0
-10 1897 0
-1883 1897 0
-10 -1883 1898 0
-1884 1898 0
-10 -1884 1899 0
-1885 1899 0
-10 -1885 1900 0
-1886 1900 0
-10 -1886 1901 0
-1887 1901 0
-10 -1887 1902 0
-1888 1902 0
-10 -1888 1903 0
-1889 1903 0
-10 -1889 1904 0
-1890 1904 0
-10 -1890 1905 0
-1891 1905 0
-10 -1891 1906 0
-1892 1906 0
-10 -1892 1907 0
-1893 1907 0
-10 -1893 1908 0
-1894 1908 0
-10 -1894 1909 0
-1895 1909 0
-10 -1895 1910 0
-1896 1910 0
-10 -1896 0
-11 1911 0
-1897 1911 0
-11 -1897 1912 0
-1898 1912 0
-11 -1898 1913 0
-1899 1913 0
-11 -1899 1914 0
-1900 1914 0
-11 -1900 1915 0
-1901 1915 0
-11 -1901 1916 0
-1902 1916 0
-11 -1902 1917 0
-1903 1917 0
-11 -1903 1918 0
-1904 1918 0
-11 -1904 1919 0
-1905 1919 0
-11 -1905 1920 0
-1906 1920 0
-11 -1906 1921 0
-1907 1921 0
-11 -1907 1922 0
-1908 1922 0
-11 -1908 1923 0
-1909 1923 0
-11 -1909 1924 0
-1910 1924 0
-11 -1910 0
-12 1925 0
-1911 1925 0
-12 -1911 1926 0
-1912 1926 0
-12 -1912 1927 0
-1913 1927 0
-12 -1913 1928 0
-1914 1928 0
-12 -1914 1929 0
-1915 1929 0
-12 -1915 1930 0
-1916 1930 0
-12 -1916 1931 0
-1917 1931 0
-12 -1917 1932 0
-1918 1932 0
-12 -1918 1933 0
-1919 1933 0
-12 -1919 1934 0
-1920 1934 0
-12 -1920 1935 0
-1921 1935 0
-12 -1921 1936 0
-1922 1936 0
-12 -1922 1937 0
-1923 1937 0
-12 -1923 1938 0
-1924 1938 0
-12 -1924 0
-13 1939 0
-1925 1939 0
-13 -1925 1940 0
-1926 1940 0
-13 -1926 1941 0
-1927 1941 0
-13 -1927 1942 0
-1928 1942 0
-13 -1928 1943 0
-1929 1943 0
-13 -1929 1944 0
-1930 1944 0
-13 -1930 1945 0
-1931 1945 0
-13 -1931 1946 0
-1932 1946 0
-13 -1932 1947 0
-1933 1947 0
-13 -1933 1948 0
-1934 1948 0
-13 -1934 1949 0
-1935 1949 0
-13 -1935 1950 0
-1936 1950 0
-13 -1936 1951 0
-1937 1951 0
-13 -1937 1952 0
-1938 1952 0
-13 -1938 0
-14 1953 0
-1939 1953 0
-14 -1939 1954 0
-1940 1954 0
-14 -1940 1955 0
-1941 1955 0
-14 -1941 1956 0
-1942 1956 0
-14 -1942 1957 0
-1943 1957 0
-14 -1943 1958 0
-1944 1958 0
-14 -1944 1959 0
-1945 1959 0
-14 -1945 1960 0
-1946 1960 0
-14 -1946 1961 0
-1947 1961 0
-14 -1947 1962 0
-1948 1962 0
-14 -1948 1963 0
-1949 1963 0
-14 -1949 1964 0
-1950 1964 0
-14 -1950 1965 0
-1951 1965 0
-14 -1951 1966 0
-1952 1966 0
-14 -1952 0
-15 1967 0
-1953 1967 0
-15 -1953 1968 0
-1954 1968 0
-15 -1954 1969 0
-1955 1969 0
-15 -1955 1970 0
-1956 1970 0
-15 -1956 1971 0
-1957 1971 0
-15 -1957 1972 0
-1958 1972 0
-15 -1958 1973 0
-1959 1973 0
-15 -1959 1974 0
-1960 1974 0
-15 -1960 1975 0
-1961 1975 0
-15 -1961 1976 0
-1962 1976 0
-15 -1962 1977 0
-1963 1977 0
-15 -1963 1978 0
-1964 1978 0
-15 -1964 1979 0
-1965 1979 0
-15 -1965 1980 0
-1966 1980 0
-15 -1966 0
-16 1981 0
-1967 1981 0
-16 -1967 1982 0
-1968 1982 0
-16 -1968 1983 0
-1969 1983 0
-16 -1969 1984 0
-1970 1984 0
-16 -1970 1985 0
-1971 1985 0
-16 -1971 1986 0
-1972 1986 0
-16 -1972 1987 0
-1973 1987 0
-16 -1973 1988 0
-1974 1988 0
-16 -1974 1989 0
-1975 1989 0
-16 -1975 1990 0
-1976 1990 0
-16 -1976 1991 0
-1977 1991 0
-16 -1977 1992 0
-1978 1992 0
-16 -1978 1993 0
-1979 1993 0
-16 -1979 1994 0
-1980 1994 0
-16 -1980 0
-17 1995 0
-1981 1995 0
-17 -1981 1996 0
-1982 1996 0
-17 -1982 1997 0
-1983 1997 0
-17 -1983 1998 0
-1984 1998 0
-17 -1984 1999 0
-1985 1999 0
-17 -1985 2000 0
-1986 2000 0
-17 -1986 2001 0
-1987 2001 0
-17 -1987 2002 0
-1988 2002 0
-17 -1988 2003 0
-1989 2003 0
-17 -1989 2004 0
-1990 2004 0
-17 -1990 2005 0
-1991 2005 0
-17 -1991 2006 0
-1992 2006 0
-17 -1992 2007 0
-1993 2007 0
-17 -1993 2008 0
-1994 2008 0
-17 -1994 0
-18 2009 0
-1995 2009 0
-18 -1995 2010 0
-1996 2010 0
-18 -1996 2011 0
-1997 2011 0
-18 -1997 2012 0
-1998 2012 0
-18 -1998 2013 0
-1999 2013 0
-18 -1999 2014 0
-2000 2014 0
-18 -2000 2015 0
-2001 2015 0
-18 -2001 2016 0
-2002 2016 0
-18 -2002 2017 0
-2003 2017 0
-18 -2003 2018 0
-2004 2018 0
-18 -2004 2019 0
-2005 2019 0
-18 -2005 2020 0
-2006 2020 0
-18 -2006 2021 0
-2007 2021 0
-18 -2007 2022 0
-2008 2022 0
-18 -2008 0
-19 2023 0
-2009 2023 0
-19 -2009 2024 0
-2010 2024 0
-19 -2010 2025 0
-2011 2025 0
-19 -2011 2026 0
-2012 2026 0
-19 -2012 2027 0
-2013 2027 0
-19 -2013 2028 0
-2014 2028 0
-19 -2014 2029 0
-2015 2029 0
-19 -2015 2030 0
-2016 2030 0
-19 -2016 2031 0
-2017 2031 0
-19 -2017 2032 0
-2018 2032 0
-19 -2018 2033 0
-2019 2033 0
-19 -2019 2034 0
-2020 2034 0
-19 -2020 2035 0
-2021 2035 0
-19 -2021 2036 0
-2022 2036 0
-19 -2022 0
-20 2037 0
-2023 2037 0
-20 -2023 2038 0
-2024 2038 0
-20 -2024 2039 0
-2025 2039 0
-20 -2025 2040 0
-2026 2040 0
-20 -2026 2041 0
-2027 2041 0
-20 -2027 2042 0
-2028 2042 0
-20 -2028 2043 0
-2029 2043 0
-20 -2029 2044 0
-2030 2044 0
-20 -2030 2045 0
-2031 2045 0
-20 -2031 2046 0
-2032 2046 0
-20 -2032 2047 0
-2033 2047 0
-20 -2033 2048 0
-2034 2048 0
-20 -2034 2049 0
-2035 2049 0
-20 -2035 2050 0
-2036 2050 0
-20 -2036 0
-21 2051 0
-2037 2051 0
-21 -2037 2052 0
-2038 2052 0
-21 -2038 2053 0
-2039 2053 0
-21 -2039 2054 0
-2040 2054 0
-21 -2040 2055 0
-2041 2055 0
-21 -2041 2056 0
-2042 2056 0
-21 -2042 2057 0
-2043 2057 0
-21 -2043 2058 0
-2044 2058 0
-21 -2044 2059 0
-2045 2059 0
-21 -2045 2060 0
-2046 2060 0
-21 -2046 2061 0
-2047 2061 0
-21 -2047 2062 0
-2048 2062 0
-21 -2048 2063 0
-2049 2063 0
-21 -2049 2064 0
-2050 2064 0
-21 -2050 0
-22 2065 0
-2051 2065 0
-22 -2051 2066 0
-2052 2066 0
-22 -2052 2067 0
-2053 2067 0
-22 -2053 2068 0
-2054 2068 0
-22 -2054 2069 0
-2055 2069 0
-22 -2055 2070 0
-2056 2070 0
-22 -2056 2071 0
-2057 2071 0
-22 -2057 2072 0
-2058 2072 0
-22 -2058 2073 0
-2059 2073 0
-22 -2059 2074 0
-2060 2074 0
-22 -2060 2075 0
-2061 2075 0
-22 -2061 2076 0
-2062 2076 0
-22 -2062 2077 0
-2063 2077 0
-22 -2063 2078 0
-2064 2078 0
-22 -2064 0
-23 2079 0
-2065 2079 0
-23 -2065 2080 0
-2066 2080 0
-23 -2066 2081 0
-2067 2081 0
-23 -2067 2082 0
-2068 2082 0
-23 -2068 2083 0
-2069 2083 0
-23 -2069 2084 0
-2070 2084 0
-23 -2070 2085 0
-2071 2085 0
-23 -2071 2086 0
-2072 2086 0
-23 -2072 2087 0
-2073 2087 0
-23 -2073 2088 0
-2074 2088 0
-23 -2074 2089 0
-2075 2089 0
-23 -2075 2090 0
-2076 2090 0
-23 -2076 2091 0
-2077 2091 0
-23 -2077 2092 0
-2078 2092 0
-23 -2078 0
-24 2093 0
-2079 2093 0
-24 -2079 2094 0
-2080 2094 0
-24 -2080 2095 0
-2081 2095 0
-24 -2081 2096 0
-2082 2096 0
-24 -2082 2097 0
-2083 2097 0
-24 -2083 2098 0
-2084 2098 0
-24 -2084 2099 0
-2085 2099 0
-24 -2085 2100 0
-2086 2100 0
-24 -2086 2101 0
-2087 2101 0
-24 -2087 2102 0
-2088 2102 0
-24 -2088 2103 0
-2089 2103 0
-24 -2089 2104 0
-2090 2104 0
-24 -2090 2105 0
-2091 2105 0
-24 -2091 2106 0
-2092 2106 0
-24 -2092 0
-25 2107 0
-2093 2107 0
-25 -2093 2108 0
-2094 2108 0
-25 -2094 2109 0
-2095 2109 0
-25 -2095 2110 0
-2096 2110 0
-25 -2096 2111 0
-2097 2111 0
-25 -2097 2112 0
-2098 2112 0
-25 -2098 2113 0
-2099 2113 0
-25 -2099 2114 0
-2100 2114 0
-25 -2100 2115 0
-2101 2115 0
-25 -2101 2116 0
-2102 2116 0
-25 -2102 2117 0
-2103 2117 0
-25 -2103 2118 0
-2104 2118 0
-25 -2104 2119 0
-2105 2119 0
-25 -2105 2120 0
-2106 2120 0
-25 -2106 0
-26 2121 0
-2107 2121 0
-26 -2107 2122 0
-2108 2122 0
-26 -2108 2123 0
-2109 2123 0
-26 -2109 2124 0
-2110 2124 0
-26 -2110 2125 0
-2111 2125 0
-26 -2111 2126 0
-2112 2126 0
-26 -2112 2127 0
-2113 2127 0
-26 -2113 2128 0
-2114 2128 0
-26 -2114 2129 0
-2115 2129 0
-26 -2115 2130 0
-2116 2130 0
-26 -2116 2131 0
-2117 2131 0
-26 -2117 2132 0
-2118 2132 0
-26 -2118 2133 0
-2119 2133 0
-26 -2119 2134 0
-2120 2134 0
-26 -2120 0
-27 2135 0
-2121 2135 0
-27 -2121 2136 0
-2122 2136 0
-27 -2122 2137 0
-2123 2137 0
-27 -2123 2138 0
-2124 2138 0
-27 -2124 2139 0
-2125 2139 0
-27 -2125 2140 0
-2126 2140 0
-27 -2126 2141 0
-2127 2141 0
-27 -2127 2142 0
-2128 2142 0
-27 -2128 2143 0
-2129 2143 0
-27 -2129 2144 0
-2130 2144 0
-27 -2130 2145 0
-2131 2145 0
-27 -2131 2146 0
-2132 2146 0
-27 -2132 2147 0
-2133 2147 0
-27 -2133 2148 0
-2134 2148 0
-27 -2134 0
-28 2149 0
-2135 2149 0
-28 -2135 2150 0
-2136 2150 0
-28 -2136 2151 0
-2137 2151 0
-28 -2137 2152 0
-2138 2152 0
-28 -2138 2153 0
-2139 2153 0
-28 -2139 2154 0
-2140 2154 0
-28 -2140 2155 0
-2141 2155 0
-28 -2141 2156 0
-2142 2156 0
-28 -2142 2157 0
-2143 2157 0
-28 -2143 2158 0
-2144 2158 0
-28 -2144 2159 0
-2145 2159 0
-28 -2145 2160 0
-2146 2160 0
-28 -2146 2161 0
-2147 2161 0
-28 -2147 2162 0
-2148 2162 0
-28 -2148 0
-29 2163 0
-2149 2163 0
-29 -2149 2164 0
-2150 2164 0
-29 -2150 2165 0
-2151 2165 0
-29 -2151 2166 0
-2152 2166 0
-29 -2152 2167 0
-2153 2167 0
-29 -2153 2168 0
-2154 2168 0
-29 -2154 2169 0
-2155 2169 0
-29 -2155 2170 0
-2156 2170 0
-29 -2156 2171 0
-2157 2171 0
-29 -2157 2172 0
-2158 2172 0
-29 -2158 2173 0
-2159 2173 0
-29 -2159 2174 0
-2160 2174 0
-29 -2160 2175 0
-2161 2175 0
-29 -2161 2176 0
-2162 2176 0
-29 -2162 0
-30 2177 0
-2163 2177 0
-30 -2163 2178 0
-2164 2178 0
-30 -2164 2179 0
-2165 2179 0
-30 -2165 2180 0
-2166 2180 0
-30 -2166 2181 0
-2167 2181 0
-30 -2167 2182 0
-2168 2182 0
-30 -2168 2183 0
-2169 2183 0
-30 -2169 2184 0
-2170 2184 0
-30 -2170 2185 0
-2171 2185 0
-30 -2171 2186 0
-2172 2186 0
-30 -2172 2187 0
-2173 2187 0
-30 -2173 2188 0
-2174 2188 0
-30 -2174 2189 0
-2175 2189 0
-30 -2175 2190 0
-2176 2190 0
-30 -2176 0
-31 2191 0
-2177 2191 0
-31 -2177 2192 0
-2178 2192 0
-31 -2178 2193 0
-2179 2193 0
-31 -2179 2194 0
-2180 2194 0
-31 -2180 2195 0
-2181 2195 0
-31 -2181 2196 0
-2182 2196 0
-31 -2182 2197 0
-2183 2197 0
-31 -2183 2198 0
-2184 2198 0
-31 -2184 2199 0
-2185 2199 0
-31 -2185 2200 0
-2186 2200 0
-31 -2186 2201 0
-2187 2201 0
-31 -2187 2202 0
-2188 2202 0
-31 -2188 2203 0
-2189 2203 0
-31 -2189 2204 0
-2190 2204 0
-31 -2190 0
-32 2205 0
-2191 2205 0
-32 -2191 2206 0
-2192 2206 0
-32 -2192 2207 0
-2193 2207 0
-32 -2193 2208 0
-2194 2208 0
-32 -2194 2209 0
-2195 2209 0
-32 -2195 2210 0
-2196 2210 0
-32 -2196 2211 0
-2197 2211 0
-32 -2197 2212 0
-2198 2212 0
-32 -2198 2213 0
-2199 2213 0
-32 -2199 2214 0
-2200 2214 0
-32 -2200 2215 0
-2201 2215 0
-32 -2201 2216 0
-2202 2216 0
-32 -2202 2217 0
-2203 2217 0
-32 -2203 2218 0
-2204 2218 0
-32 -2204 0
-33 2219 0
-2205 2219 0
-33 -2205 2220 0
-2206 2220 0
-33 -2206 2221 0
-2207 2221 0
-33 -2207 2222 0
-2208 2222 0
-33 -2208 2223 0
-2209 2223 0
-33 -2209 2224 0
-2210 2224 0
-33 -2210 2225 0
-2211 2225 0
-33 -2211 2226 0
-2212 2226 0
-33 -2212 2227 0
-2213 2227 0
-33 -2213 2228 0
-2214 2228 0
-33 -2214 2229 0
-2215 2229 0
-33 -2215 2230 0
-2216 2230 0
-33 -2216 2231 0
-2217 2231 0
-33 -2217 2232 0
-2218 2232 0
-33 -2218 0
-34 2233 0
-2219 2233 0
-34 -2219 2234 0
-2220 2234 0
-34 -2220 2235 0
-2221 2235 0
-34 -2221 2236 0
-2222 2236 0
-34 -2222 2237 0
-2223 2237 0
-34 -2223 2238 0
-2224 2238 0
-34 -2224 2239 0
-2225 2239 0
-34 -2225 2240 0
-2226 2240 0
-34 -2226 2241 0
-2227 2241 0
-34 -2227 2242 0
-2228 2242 0
-34 -2228 2243 0
-2229 2243 0
-34 -2229 2244 0
-2230 2244 0
-34 -2230 2245 0
-2231 2245 0
-34 -2231 2246 0
-2232 2246 0
-34 -2232 0
-35 2247 0
-2233 2247 0
-35 -2233 2248 0
-2234 2248 0
-35 -2234 2249 0
-2235 2249 0
-35 -2235 2250 0
-2236 2250 0
-35 -2236 2251 0
-2237 2251 0
-35 -2237 2252 0
-2238 2252 0
-35 -2238 2253 0
-2239 2253 0
-35 -2239 2254 0
-2240 2254 0
-35 -2240 2255 0
-2241 2255 0
-35 -2241 2256 0
-2242 2256 0
-35 -2242 2257 0
-2243 2257 0
-35 -2243 2258 0
-2244 2258 0
-35 -2244 2259 0
-2245 2259 0
-35 -2245 2260 0
-2246 2260 0
-35 -2246 0
-36 2261 0
-2247 2261 0
-36 -2247 2262 0
-2248 2262 0
-36 -2248 2263 0
-2249 2263 0
-36 -2249 2264 0
-2250 2264 0
-36 -2250 2265 0
-2251 2265 0
-36 -2251 2266 0
-2252 2266 0
-36 -2252 2267 0
-2253 2267 0
-36 -2253 2268 0
-2254 2268 0
-36 -2254 2269 0
-2255 2269 0
-36 -2255 2270 0
-2256 2270 0
-36 -2256 2271 0
-2257 2271 0
-36 -2257 2272 0
-2258 2272 0
-36 -2258 2273 0
-2259 2273 0
-36 -2259 2274 0
-2260 2274 0
-36 -2260 0
-37 2275 0
-2261 2275 0
-37 -2261 2276 0
-2262 2276 0
-37 -2262 2277 0
-2263 2277 0
-37 -2263 2278 0
-2264 2278 0
-37 -2264 2279 0
-2265 2279 0
-37 -2265 2280 0
-2266 2280 0
-37 -2266 2281 0
-2267 2281 0
-37 -2267 2282 0
-2268 2282 0
-37 -2268 2283 0
-2269 2283 0
-37 -2269 2284 0
-2270 2284 0
-37 -2270 2285 0
-2271 2285 0
-37 -2271 2286 0
-2272 2286 0
-37 -2272 2287 0
-2273 2287 0
-37 -2273 2288 0
-2274 2288 0
-37 -2274 0
-38 2289 0
-2275 2289 0
-38 -2275 2290 0
-2276 2290 0
-38 -2276 2291 0
-2277 2291 0
-38 -2277 2292 0
-2278 2292 0
-38 -2278 2293 0
-2279 2293 0
-38 -2279 2294 0
-2280 2294 0
-38 -2280 2295 0
-2281 2295 0
-38 -2281 2296 0
-2282 2296 0
-38 -2282 2297 0
-2283 2297 0
-38 -2283 2298 0
-2284 2298 0
-38 -2284 2299 0
-2285 2299 0
-38 -2285 2300 0
-2286 2300 0
-38 -2286 2301 0
-2287 2301 0
-38 -2287 2302 0
-2288 2302 0
-38 -2288 0
-39 2303 0
-2289 2303 0
-39 -2289 2304 0
-2290 2304 0
-39 -2290 2305 0
-2291 2305 0
-39 -2291 2306 0
-2292 2306 0
-39 -2292 2307 0
-2293 2307 0
-39 -2293 2308 0
-2294 2308 0
-39 -2294 2309 0
-2295 2309 0
-39 -2295 2310 0
-2296 2310 0
-39 -2296 2311 0
-2297 2311 0
-39 -2297 2312 0
-2298 2312 0
-39 -2298 2313 0
-2299 2313 0
-39 -2299 2314 0
-2300 2314 0
-39 -2300 2315 0
-2301 2315 0
-39 -2301 2316 0
-2302 2316 0
-39 -2302 0
-40 2317 0
-2303 2317 0
-40 -2303 2318 0
-2304 2318 0
-40 -2304 2319 0
-2305 2319 0
-40 -2305 2320 0
-2306 2320 0
-40 -2306 2321 0
-2307 2321 0
-40 -2307 2322 0
-2308 2322 0
-40 -2308 2323 0
-2309 2323 0
-40 -2309 2324 0
-2310 2324 0
-40 -2310 2325 0
-2311 2325 0
-40 -2311 2326 0
-2312 2326 0
-40 -2312 2327 0
-2313 2327 0
-40 -2313 2328 0
-2314 2328 0
-40 -2314 2329 0
-2315 2329 0
-40 -2315 2330 0
-2316 2330 0
-40 -2316 0
-41 2331 0
-2317 2331 0
-41 -2317 2332 0
-2318 2332 0
-41 -2318 2333 0
-2319 2333 0
-41 -2319 2334 0
-2320 2334 0
-41 -2320 2335 0
-2321 2335 0
-41 -2321 2336 0
-2322 2336 0
-41 -2322 2337 0
-2323 2337 0
-41 -2323 2338 0
-2324 2338 0
-41 -2324 2339 0
-2325 2339 0
-41 -2325 2340 0
-2326 2340 0
-41 -2326 2341 0
-2327 2341 0
-41 -2327 2342 0
-2328 2342 0
-41 -2328 2343 0
-2329 2343 0
-41 -2329 2344 0
-2330 2344 0
-41 -2330 0
-42 2345 0
-2331 2345 0
-42 -2331 2346 0
-2332 2346 0
-42 -2332 2347 0
-2333 2347 0
-42 -2333 2348 0
-2334 2348 0
-42 -2334 2349 0
-2335 2349 0
-42 -2335 2350 0
-2336 2350 0
-42 -2336 2351 0
-2337 2351 0
-42 -2337 2352 0
-2338 2352 0
-42 -2338 2353 0
-2339 2353 0
-42 -2339 2354 0
-2340 2354 0
-42 -2340 2355 0
-2341 2355 0
-42 -2341 2356 0
-2342 2356 0
-42 -2342 2357 0
-2343 2357 0
-42 -2343 2358 0
-2344 2358 0
-42 -2344 0
-43 2359 0
-2345 2359 0
-43 -2345 2360 0
-2346 2360 0
-43 -2346 2361 0
-2347 2361 0
-43 -2347 2362 0
-2348 2362 0
-43 -2348 2363 0
-2349 2363 0
-43 -2349 2364 0
-2350 2364 0
-43 -2350 2365 0
-2351 2365 0
-43 -2351 2366 0
-2352 2366 0
-43 -2352 2367 0
-2353 2367 0
-43 -2353 2368 0
-2354 2368 0
-43 -2354 2369 0
-2355 2369 0
-43 -2355 2370 0
-2356 2370 0
-43 -2356 2371 0
-2357 2371 0
-43 -2357 2372 0
-2358 2372 0
-43 -2358 0
-44 2373 0
-2359 2373 0
-44 -2359 2374 0
-2360 2374 0
-44 -2360 2375 0
-2361 2375 0
-44 -2361 2376 0
-2362 2376 0
-44 -2362 2377 0
-2363 2377 0
-44 -2363 2378 0
-2364 2378 0
-44 -2364 2379 0
-2365 2379 0
-44 -2365 2380 0
-2366 2380 0
-44 -2366 2381 0
-2367 2381 0
-44 -2367 2382 0
-2368 2382 0
-44 -2368 2383 0
-2369 2383 0
-44 -2369 2384 0
-2370 2384 0
-44 -2370 2385 0
-2371 2385 0
-44 -2371 2386 0
-2372 2386 0
-44 -2372 0
-45 2387 0
-2373 2387 0
-45 -2373 2388 0
-2374 2388 0
-45 -2374 2389 0
-2375 2389 0
-45 -2375 2390 0
-2376 2390 0
-45 -2376 2391 0
-2377 2391 0
-45 -2377 2392 0
-2378 2392 0
-45 -2378 2393 0
-2379 2393 0
-45 -2379 2394 0
-2380 2394 0
-45 -2380 2395 0
-2381 2395 0
-45 -2381 2396 0
-2382 2396 0
-45 -2382 2397 0
-2383 2397 0
-45 -2383 2398 0
-2384 2398 0
-45 -2384 2399 0
-2385 2399 0
-45 -2385 2400 0
-2386 2400 0
-45 -2386 0
-46 2401 0
-2387 2401 0
-46 -2387 2402 0
-2388 2402 0
-46 -2388 2403 0
-2389 2403 0
-46 -2389 2404 0
-2390 2404 0
-46 -2390 2405 0
-2391 2405 0
-46 -2391 2406 0
-2392 2406 0
-46 -2392 2407 0
-2393 2407 0
-46 -2393 2408 0
-2394 2408 0
-46 -2394 2409 0
-2395 2409 0
-46 -2395 2410 0
-2396 2410 0
-46 -2396 2411 0
-2397 2411 0
-46 -2397 2412 0
-2398 2412 0
-46 -2398 2413 0
-2399 2413 0
-46 -2399 2414 0
-2400 2414 0
-46 -2400 0
-47 2415 0
-2401 2415 0
-47 -2401 2416 0
-2402 2416 0
-47 -2402 2417 0
-2403 2417 0
-47 -2403 2418 0
-2404 2418 0
-47 -2404 2419 0
-2405 2419 0
-47 -2405 2420 0
-2406 2420 0
-47 -2406 2421 0
-2407 2421 0
-47 -2407 2422 0
-2408 2422 0
-47 -2408 2423 0
-2409 2423 0
-47 -2409 2424 0
-2410 2424 0
-47 -2410 2425 0
-2411 2425 0
-47 -2411 2426 0
-2412 2426 0
-47 -2412 2427 0
-2413 2427 0
-47 -2413 2428 0
-2414 2428 0
-47 -2414 0
-48 2429 0
-2415 2429 0
-48 -2415 2430 0
-2416 2430 0
-48 -2416 2431 0
-2417 2431 0
-48 -2417 2432 0
-2418 2432 0
-48 -2418 2433 0
-2419 2433 0
-48 -2419 2434 0
-2420 2434 0
-48 -2420 2435 0
-2421 2435 0
-48 -2421 2436 0
-2422 2436 0
-48 -2422 2437 0
-2423 2437 0
-48 -2423 2438 0
-2424 2438 0
-48 -2424 2439 0
-2425 2439 0
-48 -2425 2440 0
-2426 2440 0
-48 -2426 2441 0
-2427 2441 0
-48 -2427 2442 0
-2428 2442 0
-48 -2428 0
-49 2443 0
-2429 2443 0
-49 -2429 2444 0
-2430 2444 0
-49 -2430 2445 0
-2431 2445 0
-49 -2431 2446 0
-2432 2446 0
-49 -2432 2447 0
-2433 2447 0
-49 -2433 2448 0
-2434 2448 0
-49 -2434 2449 0
-2435 2449 0
-49 -2435 2450 0
-2436 2450 0
-49 -2436 2451 0
-2437 2451 0
-49 -2437 2452 0
-2438 2452 0
-49 -2438 2453 0
-2439 2453 0
-49 -2439 2454 0
-2440 2454 0
-49 -2440 2455 0
-2441 2455 0
-49 -2441 2456 0
-2442 2456 0
-49 -2442 0
-50 2457 0
-2443 2457 0
-50 -2443 2458 0
-2444 2458 0
-50 -2444 2459 0
-2445 2459 0
-50 -2445 2460 0
-2446 2460 0
-50 -2446 2461 0
-2447 2461 0
-50 -2447 2462 0
-2448 2462 0
-50 -2448 2463 0
-2449 2463 0
-50 -2449 2464 0
-2450 2464 0
-50 -2450 2465 0
-2451 2465 0
-50 -2451 2466 0
-2452 2466 0
-50 -2452 2467 0
-2453 2467 0
-50 -2453 2468 0
-2454 2468 0
-50 -2454 2469 0
-2455 2469 0
-50 -2455 2470 0
-2456 2470 0
-50 -2456 0
-51 2471 0
-2457 2471 0
-51 -2457 2472 0
-2458 2472 0
-51 -2458 2473 0
-2459 2473 0
-51 -2459 2474 0
-2460 2474 0
-51 -2460 2475 0
-2461 2475 0
-51 -2461 2476 0
-2462 2476 0
-51 -2462 2477 0
-2463 2477 0
-51 -2463 2478 0
-2464 2478 0
-51 -2464 2479 0
-2465 2479 0
-51 -2465 2480 0
-2466 2480 0
-51 -2466 2481 0
-2467 2481 0
-51 -2467 2482 0
-2468 2482 0
-51 -2468 2483 0
-2469 2483 0
-51 -2469 2484 0
-2470 2484 0
-51 -2470 0
-52 2485 0
-2471 2485 0
-52 -2471 2486 0
-2472 2486 0
-52 -2472 2487 0
-2473 2487 0
-52 -2473 2488 0
-2474 2488 0
-52 -2474 2489 0
-2475 2489 0
-52 -2475 2490 0
-2476 2490 0
-52 -2476 2491 0
-2477 2491 0
-52 -2477 2492 0
-2478 2492 0
-52 -2478 2493 0
-2479 2493 0
-52 -2479 2494 0
-2480 2494 0
-52 -2480 2495 0
-2481 2495 0
-52 -2481 2496 0
-2482 2496 0
-52 -2482 2497 0
-2483 2497 0
-52 -2483 2498 0
-2484 2498 0
-52 -2484 0
-53 2499 0
-2485 2499 0
-53 -2485 2500 0
-2486 2500 0
-53 -2486 2501 0
-2487 2501 0
-53 -2487 2502 0
-2488 2502 0
-53 -2488 2503 0
-2489 2503 0
-53 -2489 2504 0
-2490 2504 0
-53 -2490 2505 0
-2491 2505 0
-53 -2491 2506 0
-2492 2506 0
-53 -2492 2507 0
-2493 2507 0
-53 -2493 2508 0
-2494 2508 0
-53 -2494 2509 0
-2495 2509 0
-53 -2495 2510 0
-2496 2510 0
-53 -2496 2511 0
-2497 2511 0
-53 -2497 2512 0
-2498 2512 0
-53 -2498 0
-54 2513 0
-2499 2513 0
-54 -2499 2514 0
-2500 2514 0
-54 -2500 2515 0
-2501 2515 0
-54 -2501 2516 0
-2502 2516 0
-54 -2502 2517 0
-2503 2517 0
-54 -2503 2518 0
-2504 2518 0
-54 -2504 2519 0
-2505 2519 0
-54 -2505 2520 0
-2506 2520 0
-54 -2506 2521 0
-2507 2521 0
-54 -2507 2522 0
-2508 2522 0
-54 -2508 2523 0
-2509 2523 0
-54 -2509 2524 0
-2510 2524 0
-54 -2510 2525 0
-2511 2525 0
-54 -2511 2526 0
-2512 2526 0
-54 -2512 0
-55 2527 0
-2513 2527 0
-55 -2513 2528 0
-2514 2528 0
-55 -2514 2529 0
-2515 2529 0
-55 -2515 2530 0
-2516 2530 0
-55 -2516 2531 0
-2517 2531 0
-55 -2517 2532 0
-2518 2532 0
-55 -2518 2533 0
-2519 2533 0
-55 -2519 2534 0
-2520 2534 0
-55 -2520 2535 0
-2521 2535 0
-55 -2521 2536 0
-2522 2536 0
-55 -2522 2537 0
-2523 2537 0
-55 -2523 2538 0
-2524 2538 0
-55 -2524 2539 0
-2525 2539 0
-55 -2525 2540 0
-2526 2540 0
-55 -2526 0
-56 2541 0
-2527 2541 0
-56 -2527 2542 0
-2528 2542 0
-56 -2528 2543 0
-2529 2543 0
-56 -2529 2544 0
-2530 2544 0
-56 -2530 2545 0
-2531 2545 0
-56 -2531 2546 0
-2532 2546 0
-56 -2532 2547 0
-2533 2547 0
-56 -2533 2548 0
-2534 2548 0
-56 -2534 2549 0
-2535 2549 0
-56 -2535 2550 0
-2536 2550 0
-56 -2536 2551 0
-2537 2551 0
-56 -2537 2552 0
-2538 2552 0
-56 -2538 2553 0
-2539 2553 0
-56 -2539 2554 0
-2540 2554 0
-56 -2540 0
-57 2555 0
-2541 2555 0
-57 -2541 2556 0
-2542 2556 0
-57 -2542 2557 0
-2543 2557 0
-57 -2543 2558 0
-2544 2558 0
-57 -2544 2559 0
-2545 2559 0
-57 -2545 2560 0
-2546 2560 0
-57 -2546 2561 0
-2547 2561 0
-57 -2547 2562 0
-2548 2562 0
-57 -2548 2563 0
-2549 2563 0
-57 -2549 2564 0
-2550 2564 0
-57 -2550 2565 0
-2551 2565 0
-57 -2551 2566 0
-2552 2566 0
-57 -2552 2567 0
-2553 2567 0
-57 -2553 2568 0
-2554 2568 0
-57 -2554 0
-58 2569 0
-2555 2569 0
-58 -2555 2570 0
-2556 2570 0
-58 -2556 2571 0
-2557 2571 0
-58 -2557 2572 0
-2558 2572 0
-58 -2558 2573 0
-2559 2573 0
-58 -2559 2574 0
-2560 2574 0
-58 -2560 2575 0
-2561 2575 0
-58 -2561 2576 0
-2562 2576 0
-58 -2562 2577 0
-2563 2577 0
-58 -2563 2578 0
-2564 2578 0
-58 -2564 2579 0
-2565 2579 0
-58 -2565 2580 0
-2566 2580 0
-58 -2566 2581 0
-2567 2581 0
-58 -2567 2582 0
-2568 2582 0
-58 -2568 0
-59 2583 0
-2569 2583 0
-59 -2569 2584 0
-2570 2584 0
-59 -2570 2585 0
-2571 2585 0
-59 -2571 2586 0
-2572 2586 0
-59 -2572 2587 0
-2573 2587 0
-59 -2573 2588 0
-2574 2588 0
-59 -2574 2589 0
-2575 2589 0
-59 -2575 2590 0
-2576 2590 0
-59 -2576 2591 0
-2577 2591 0
-59 -2577 2592 0
-2578 2592 0
-59 -2578 2593 0
-2579 2593 0
-59 -2579 2594 0
-2580 2594 0
-59 -2580 2595 0
-2581 2595 0
-59 -2581 2596 0
-2582 2596 0
-59 -2582 0
1 2597 0
-2598 0
-2599 0
-2600 0
-2601 0
-2602 0
-2603 0
-2604 0
-2605 0
-2606 0
-2607 0
-2608 0
-2609 0
-2610 0
-2611 0
-2612 0
-2613 0
-2614 0
-2615 0
-2616 0
-2617 0
-2618 0
-2619 0
-2620 0
-2621 0
-2622 0
-2623 0
-2624 0
-2625 0
-2626 0
-2627 0
-2628 0
-2629 0
-2630 0
-2631 0
-2632 0
-2633 0
-2634 0
-2635 0
-2636 0
-2637 0
-2638 0
-2639 0
-2640 0
-2641 0
2 2642 0
-2597 2642 0
2 -2597 2643 0
-2598 2643 0
2 -2598 2644 0
-2599 2644 0
2 -2599 2645 0
-2600 2645 0
2 -2600 2646 0
-2601 2646 0
2 -2601 2647 0
-2602 2647 0
2 -2602 2648 0
-2603 2648 0
2 -2603 2649 0
-2604 2649 0
2 -2604 2650 0
-2605 2650 0
2 -2605 2651 0
-2606 2651 0
2 -2606 2652 0
-2607 2652 0
2 -2607 2653 0
-2608 2653 0
2 -2608 2654 0
-2609 2654 0
2 -2609 2655 0
-2610 2655 0
2 -2610 2656 0
-2611 2656 0
2 -2611 2657 0
-2612 2657 0
2 -2612 2658 0
-2613 2658 0
2 -2613 2659 0
-2614 2659 0
2 -2614 2660 0
-2615 2660 0
2 -2615 2661 0
-2616 2661 0
2 -2616 2662 0
-2617 2662 0
2 -2617 2663 0
-2618 2663 0
2 -2618 2664 0
-2619 2664 0
2 -2619 2665 0
-2620 2665 0
2 -2620 2666 0
-2621 2666 0
2 -2621 2667 0
-2622 2667 0
2 -2622 2668 0
-2623 2668 0
2 -2623 2669 0
-2624 2669 0
2 -2624 2670 0
-2625 2670 0
2 -2625 2671 0
-2626 2671 0
2 -2626 2672 0
-2627 2672 0
2 -2627 2673 0
-2628 2673 0
2 -2628 2674 0
-2629 2674 0
2 -2629 2675 0
-2630 2675 0
2 -2630 2676 0
-2631 2676 0
2 -2631 2677 0
-2632 2677 0
2 -2632 2678 0
-2633 2678 0
2 -2633 2679 0
-2634 2679 0
2 -2634 2680 0
-2635 2680 0
2 -2635 2681 0
-2636 2681 0
2 -2636 2682 0
-2637 2682 0
2 -2637 2683 0
-2638 2683 0
2 -2638 2684 0
-2639 2684 0
2 -2639 2685 0
-2640 2685 0
2 -2640 2686 0
-2641 2686 0
2 -2641 0
3 2687 0
-2642 2687 0
3 -2642 2688 0
-2643 2688 0
3 -2643 2689 0
-2644 2689 0
3 -2644 2690 0
-2645 2690 0
3 -2645 2691 0
-2646 2691 0
3 -2646 2692 0
-2647 2692 0
3 -2647 2693 0
-2648 2693 0
3 -2648 2694 0
-2649 2694 0
3 -2649 2695 0
-2650 2695 0
3 -2650 2696 0
-2651 2696 0
3 -2651 2697 0
-2652 2697 0
3 -2652 2698 0
-2653 2698 0
3 -2653 2699 0
-2654 2699 0
3 -2654 2700 0
-2655 2700 0
3 -2655 2701 0
-2656 2701 0
3 -2656 2702 0
-2657 2702 0
3 -2657 2703 0
-2658 2703 0
3 -2658 2704 0
-2659 2704 0
3 -2659 2705 0
-2660 2705 0
3 -2660 2706 0
-2661 2706 0
3 -2661 2707 0
-2662 2707 0
3 -2662 2708 0
-2663 2708 0
3 -2663 2709 0
-2664 2709 0
3 -2664 2710 0
-2665 2710 0
3 -2665 2711 0
-2666 2711 0
3 -2666 2712 0
-2667 2712 0
3 -2667 2713 0
-2668 2713 0
3 -2668 2714 0
-2669 2714 0
3 -2669 2715 0
-2670 2715 0
3 -2670 2716 0
-2671 2716 0
3 -2671 2717 0
-2672 2717 0
3 -2672 2718 0
-2673 2718 0
3 -2673 2719 0
-2674 2719 0
3 -2674 2720 0
-2675 2720 0
3 -2675 2721 0
-2676 2721 0
3 -2676 2722 0
-2677 2722 0
3 -2677 2723 0
-2678 2723 0
3 -2678 2724 0
-2679 2724 0
3 -2679 2725 0
-2680 2725 0
3 -2680 2726 0
-2681 2726 0
3 -2681 2727 0
-2682 2727 0
3 -2682 2728 0
-2683 2728 0
3 -2683 2729 0
-2684 2729 0
3 -2684 2730 0
-2685 2730 0
3 -2685 2731 0
-2686 2731 0
3 -2686 0
4 2732 0
-2687 2732 0
4 -2687 2733 0
-2688 2733 0
4 -2688 2734 0
-2689 2734 0
4 -2689 2735 0
-2690 2735 0
4 -2690 2736 0
-2691 2736 0
4 -2691 2737 0
-2692 2737 0
4 -2692 2738 0
-2693 2738 0
4 -2693 2739 0
-2694 2739 0
4 -2694 2740 0
-2695 2740 0
4 -2695 2741 0
-2696 2741 0
4 -2696 2742 0
-2697 2742 0
4 -2697 2743 0
-2698 2743 0
4 -2698 2744 0
-2699 2744 0
4 -2699 2745 0
-2700 2745 0
4 -2700 2746 0
-2701 2746 0
4 -2701 2747 0
-2702 2747 0
4 -2702 2748 0
-2703 2748 0
4 -2703 2749 0
-2704 2749 0
4 -2704 2750 0
-2705 2750 0
4 -2705 2751 0
-2706 2751 0
4 -2706 2752 0
-2707 2752 0
4 -2707 2753 0
-2708 2753 0
4 -2708 2754 0
-2709 2754 0
4 -2709 2755 0
-2710 2755 0
4 -2710 2756 0
-2711 2756 0
4 -2711 2757 0
-2712 2757 0
4 -2712 2758 0
-2713 2758 0
4 -2713 2759 0
-2714 2759 0
4 -2714 2760 0
-2715 2760 0
4 -2715 2761 0
-2716 2761 0
4 -2716 2762 0
-2717 2762 0
4 -2717 2763 0
-2718 2763 0
4 -2718 2764 0
-2719 2764 0
4 -2719 2765 0
-2720 2765 0
4 -2720 2766 0
-2721 2766 0
4 -2721 2767 0
-2722 2767 0
4 -2722 2768 0
-2723 2768 0
4 -2723 2769 0
-2724 2769 0
4 -2724 2770 0
-2725 2770 0
4 -2725 2771 0
-2726 2771 0
4 -2726 2772 0
-2727 2772 0
4 -2727 2773 0
-2728 2773 0
4 -2728 2774 0
-2729 2774 0
4 -2729 2775 0
-2730 2775 0
4 -2730 2776 0
-2731 2776 0
4 -2731 0
5 2777 0
-2732 2777 0
5 -2732 2778 0
-2733 2778 0
5 -2733 2779 0
-2734 2779 0
5 -2734 2780 0
-2735 2780 0
5 -2735 2781 0
-2736 2781 0
5 -2736 2782 0
-2737 2782 0
5 -2737 2783 0
-2738 2783 0
5 -2738 2784 0
-2739 2784 0
5 -2739 2785 0
-2740 2785 0
5 -2740 2786 0
-2741 2786 0
5 -2741 2787 0
-2742 2787 0
5 -2742 2788 0
-2743 2788 0
5 -2743 2789 0
-2744 2789 0
5 -2744 2790 0
-2745 2790 0
5 -2745 2791 0
-2746 2791 0
5 -2746 2792 0
-2747 2792 0
5 -2747 2793 0
-2748 2793 0
5 -2748 2794 0
-2749 2794 0
5 -2749 2795 0
-2750 2795 0
5 -2750 2796 0
-2751 2796 0
5 -2751 2797 0
-2752 2797 0
5 -2752 2798 0
-2753 2798 0
5 -2753 2799 0
-2754 2799 0
5 -2754 2800 0
-2755 2800 0
5 -2755 2801 0
-2756 2801 0
5 -2756 2802 0
-2757 2802 0
5 -2757 2803 0
-2758 2803 0
5 -2758 2804 0
-2759 2804 0
5 -2759 2805 0
-2760 2805 0
5 -2760 2806 0
-2761 2806 0
5 -2761 2807 0
-2762 2807 0
5 -2762 2808 0
-2763 2808 0
5 -2763 2809 0
-2764 2809 0
5 -2764 2810 0
-2765 2810 0
5 -2765 2811 0
-2766 2811 0
5 -2766 2812 0
-2767 2812 0
5 -2767 2813 0
-2768 2813 0
5 -2768 2814 0
-2769 2814 0
5 -2769 2815 0
-2770 2815 0
5 -2770 2816 0
-2771 2816 0
5 -2771 2817 0
-2772 2817 0
5 -2772 2818 0
-2773 2818 0
5 -2773 2819 0
-2774 2819 0
5 -2774 2820 0
-2775 2820 0
5 -2775 2821 0
-2776 2821 0
5 -2776 0
6 2822 0
-2777 2822 0
6 -2777 2823 0
-2778 2823 0
6 -2778 2824 0
-2779 2824 0
6 -2779 2825 0
-2780 2825 0
6 -2780 2826 0
-2781 2826 0
6 -2781 2827 0
-2782 2827 0
6 -2782 2828 0
-2783 2828 0
6 -2783 2829 0
-2784 2829 0
6 -2784 2830 0
-2785 2830 0
6 -2785 2831 0
-2786 2831 0
6 -2786 2832 0
-2787 2832 0
6 -2787 2833 0
-2788 2833 0
6 -2788 2834 0
-2789 2834 0
6 -2789 2835 0
-2790 2835 0
6 -2790 2836 0
-2791 2836 0
6 -2791 2837 0
-2792 2837 0
6 -2792 2838 0
-2793 2838 0
6 -2793 2839 0
-2794 2839 0
6 -2794 2840 0
-2795 2840 0
6 -2795 2841 0
-2796 2841 0
6 -2796 2842 0
-2797 2842 0
6 -2797 2843 0
-2798 2843 0
6 -2798 2844 0
-2799 2844 0
6 -2799 2845 0
-2800 2845 0
6 -2800 2846 0
-2801 2846 0
6 -2801 2847 0
-2802 2847 0
6 -2802 2848 0
-2803 2848 0
6 -2803 2849 0
-2804 2849 0
6 -2804 2850 0
-2805 2850 0
6 -2805 2851 0
-2806 2851 0
6 -2806 2852 0
-2807 2852 0
6 -2807 2853 0
-2808 2853 0
6 -2808 2854 0
-2809 2854 0
6 -2809 2855 0
-2810 2855 0
6 -2810 2856 0
-2811 2856 0
6 -2811 2857 0
-2812 2857 0
6 -2812 2858 0
-2813 2858 0
6 -2813 2859 0
-2814 2859 0
6 -2814 2860 0
-2815 2860 0
6 -2815 2861 0
-2816 2861 0
6 -2816 2862 0
-2817 2862 0
6 -2817 2863 0
-2818 2863 0
6 -2818 2864 0
-2819 2864 0
6 -2819 2865 0
-2820 2865 0
6 -2820 2866 0
-2821 2866 0
6 -2821 0
7 2867 0
-2822 2867 0
7 -2822 2868 0
-2823 2868 0
7 -2823 2869 0
-2824 2869 0
7 -2824 2870 0
-2825 2870 0
7 -2825 2871 0
-2826 2871 0
7 -2826 2872 0
-2827 2872 0
7 -2827 2873 0
-2828 2873 0
7 -2828 2874 0
-2829 2874 0
7 -2829 2875 0
-2830 2875 0
7 -2830 2876 0
-2831 2876 0
7 -2831 2877 0
-2832 2877 0
7 -2832 2878 0
-2833 2878 0
7 -2833 2879 0
-2834 2879 0
7 -2834 2880 0
-2835 2880 0
7 -2835 2881 0
-2836 2881 0
7 -2836 2882 0
-2837 2882 0
7 -2837 2883 0
-2838 2883 0
7 -2838 2884 0
-2839 2884 0
7 -2839 2885 0
-2840 2885 0
7 -2840 2886 0
-2841 2886 0
7 -2841 2887 0
-2842 2887 0
7 -2842 2888 0
-2843 2888 0
7 -2843 2889 0
-2844 2889 0
7 -2844 2890 0
-2845 2890 0
7 -2845 2891 0
-2846 2891 0
7 -2846 2892 0
-2847 2892 0
7 -2847 2893 0
-2848 2893 0
7 -2848 2894 0
-2849 2894 0
7 -2849 2895 0
-2850 2895 0
7 -2850 2896 0
-2851 2896 0
7 -2851 2897 0
-2852 2897 0
7 -2852 2898 0
-2853 2898 0
7 -2853 2899 0
-2854 2899 0
7 -2854 2900 0
-2855 2900 0
7 -2855 2901 0
-2856 2901 0
7 -2856 2902 0
-2857 2902 0
7 -2857 2903 0
-2858 2903 0
7 -2858 2904 0
-2859 2904 0
7 -2859 2905 0
-2860 2905 0
7 -2860 2906 0
-2861 2906 0
7 -2861 2907 0
-2862 2907 0
7 -2862 2908 0
-2863 2908 0
7 -2863 2909 0
-2864 2909 0
7 -2864 2910 0
-2865 2910 0
7 -2865 2911 0
-2866 2911 0
7 -2866 0
8 2912 0
-2867 2912 0
8 -2867 2913 0
-2868 2913 0
8 -2868 2914 0
-2869 2914 0
8 -2869 2915 0
-2870 2915 0
8 -2870 2916 0
-2871 2916 0
8 -2871 2917 0
-2872 2917 0
8 -2872 2918 0
-2873 2918 0
8 -2873 2919 0
-2874 2919 0
8 -2874 2920 0
-2875 2920 0
8 -2875 2921 0
-2876 2921 0
8 -2876 2922 0
-2877 2922 0
8 -2877 2923 0
-2878 2923 0
8 -2878 2924 0
-2879 2924 0
8 -2879 2925 0
-2880 2925 0
8 -2880 2926 0
-2881 2926 0
8 -2881 2927 0
-2882 2927 0
8 -2882 2928 0
-2883 2928 0
8 -2883 2929 0
-2884 2929 0
8 -2884 2930 0
-2885 2930 0
8 -2885 2931 0
-2886 2931 0
8 -2886 2932 0
-2887 2932 0
8 -2887 2933 0
-2888 2933 0
8 -2888 2934 0
-2889 2934 0
8 -2889 2935 0
-2890 2935 0
8 -2890 2936 0
-2891 2936 0
8 -2891 2937 0
-2892 2937 0
8 -2892 2938 0
-2893 2938 0
8 -2893 2939 0
-2894 2939 0
8 -2894 2940 0
-2895 2940 0
8 -2895 2941 0
-2896 2941 0
8 -2896 2942 0
-2897 2942 0
8 -2897 2943 0
-2898 2943 0
8 -2898 2944 0
-2899 2944 0
8 -2899 2945 0
-2900 2945 0
8 -2900 2946 0
-2901 2946 0
8 -2901 2947 0
-2902 2947 0
8 -2902 2948 0
-2903 2948 0
8 -2903 2949 0
-2904 2949 0
8 -2904 2950 0
-2905 2950 0
8 -2905 2951 0
-2906 2951 0
8 -2906 2952 0
-2907 2952 0
8 -2907 2953 0
-2908 2953 0
8 -2908 2954 0
-2909 2954 0
8 -2909 2955 0
-2910 2955 0
8 -2910 2956 0
-2911 2956 0
8 -2911 0
9 2957 0
-2912 2957 0
9 -2912 2958 0
-2913 2958 0
9 -2913 2959 0
-2914 2959 0
9 -2914 2960 0
-2915 2960 0
9 -2915 2961 0
-2916 2961 0
9 -2916 2962 0
-2917 2962 0
9 -2917 2963 0
-2918 2963 0
9 -2918 2964 0
-2919 2964 0
9 -2919 2965 0
-2920 2965 0
9 -2920 2966 0
-2921 2966 0
9 -2921 2967 0
-2922 2967 0
9 -2922 2968 0
-2923 2968 0
9 -2923 2969 0
-2924 2969 0
9 -2924 2970 0
-2925 2970 0
9 -2925 2971 0
-2926 2971 0
9 -2926 2972 0
-2927 2972 0
9 -2927 2973 0
-2928 2973 0
9 -2928 2974 0
-2929 2974 0
9 -2929 2975 0
-2930 2975 0
9 -2930 2976 0
-2931 2976 0
9 -2931 2977 0
-2932 2977 0
9 -2932 2978 0
-2933 2978 0
9 -2933 2979 0
-2934 2979 0
9 -2934 2980 0
-2935 2980 0
9 -2935 2981 0
-2936 2981 0
9 -2936 2982 0
-2937 2982 0
9 -2937 2983 0
-2938 2983 0
9 -2938 2984 0
-2939 2984 0
9 -2939 2985 0
-2940 2985 0
9 -2940 2986 0
-2941 2986 0
9 -2941 2987 0
-2942 2987 0
9 -2942 2988 0
-2943 2988 0
9 -2943 2989 0
-2944 2989 0
9 -2944 2990 0
-2945 2990 0
9 -2945 2991 0
-2946 2991 0
9 -2946 2992 0
-2947 2992 0
9 -2947 2993 0
-2948 2993 0
9 -2948 2994 0
-2949 2994 0
9 -2949 2995 0
-2950 2995 0
9 -2950 2996 0
-2951 2996 0
9 -2951 2997 0
-2952 2997 0
9 -2952 2998 0
-2953 2998 0
9 -2953 2999 0
-2954 2999 0
9 -2954 3000 0
-2955 3000 0
9 -2955 3001 0
-2956 3001 0
9 -2956 0
10 3002 0
-2957 3002 0
10 -2957 3003 0
-2958 3003 0
10 -2958 3004 0
-2959 3004 0
10 -2959 3005 0
-2960 3005 0
10 -2960 3006 0
-2961 3006 0
10 -2961 3007 0
-2962 3007 0
10 -2962 3008 0
-2963 3008 0
10 -2963 3009 0
-2964 3009 0
10 -2964 3010 0
-2965 3010 0
10 -2965 3011 0
-2966 3011 0
10 -2966 3012 0
-2967 3012 0
10 -2967 3013 0
-2968 3013 0
10 -2968 3014 0
-2969 3014 0
10 -2969 3015 0
-2970 3015 0
10 -2970 3016 0
-2971 3016 0
10 -2971 3017 0
-2972 3017 0
10 -2972 3018 0
-2973 3018 0
10 -2973 3019 0
-2974 3019 0
10 -2974 3020 0
-2975 3020 0
10 -2975 3021 0
-2976 3021 0
10 -2976 3022 0
-2977 3022 0
10 -2977 3023 0
-2978 3023 0
10 -2978 3024 0
-2979 3024 0
10 -2979 3025 0
-2980 3025 0
10 -2980 3026 0
-2981 3026 0
10 -2981 3027 0
-2982 3027 0
10 -2982 3028 0
-2983 3028 0
10 -2983 3029 0
-2984 3029 0
10 -2984 3030 0
-2985 3030 0
10 -2985 3031 0
-2986 3031 0
10 -2986 3032 0
-2987 3032 0
10 -2987 3033 0
-2988 3033 0
10 -2988 3034 0
-2989 3034 0
10 -2989 3035 0
-2990 3035 0
10 -2990 3036 0
-2991 3036 0
10 -2991 3037 0
-2992 3037 0
10 -2992 3038 0
-2993 3038 0
10 -2993 3039 0
-2994 3039 0
10 -2994 3040 0
-2995 3040 0
10 -2995 3041 0
-2996 3041 0
10 -2996 3042 0
-2997 3042 0
10 -2997 3043 0
-2998 3043 0
10 -2998 3044 0
-2999 3044 0
10 -2999 3045 0
-3000 3045 0
10 -3000 3046 0
-3001 3046 0
10 -3001 0
11 3047 0
-3002 3047 0
11 -3002 3048 0
-3003 3048 0
11 -3003 3049 0
-3004 3049 0
11 -3004 3050 0
-3005 3050 0
11 -3005 3051 0
-3006 3051 0
11 -3006 3052 0
-3007 3052 0
11 -3007 3053 0
-3008 3053 0
11 -3008 3054 0
-3009 3054 0
11 -3009 3055 0
-3010 3055 0
11 -3010 3056 0
-3011 3056 0
11 -3011 3057 0
-3012 3057 0
11 -3012 3058 0
-3013 3058 0
11 -3013 3059 0
-3014 3059 0
11 -3014 3060 0
-3015 3060 0
11 -3015 3061 0
-3016 3061 0
11 -3016 3062 0
-3017 3062 0
11 -3017 3063 0
-3018 3063 0
11 -3018 3064 0
-3019 3064 0
11 -3019 3065 0
-3020 3065 0
11 -3020 3066 0
-3021 3066 0
11 -3021 3067 0
-3022 3067 0
11 -3022 3068 0
-3023 3068 0
11 -3023 3069 0
-3024 3069 0
11 -3024 3070 0
-3025 3070 0
11 -3025 3071 0
-3026 3071 0
11 -3026 3072 0
-3027 3072 0
11 -3027 3073 0
-3028 3073 0
11 -3028 3074 0
-3029 3074 0
11 -3029 3075 0
-3030 3075 0
11 -3030 3076 0
-3031 3076 0
11 -3031 3077 0
-3032 3077 0
11 -3032 3078 0
-3033 3078 0
11 -3033 3079 0
-3034 3079 0
11 -3034 3080 0
-3035 3080 0
11 -3035 3081 0
-3036 3081 0
11 -3036 3082 0
-3037 3082 0
11 -3037 3083 0
-3038 3083 0
11 -3038 3084 0
-3039 3084 0
11 -3039 3085 0
-3040 3085 0
11 -3040 3086 0
-3041 3086 0
11 -3041 3087 0
-3042 3087 0
11 -3042 3088 0
-3043 3088 0
11 -3043 3089 0
-3044 3089 0
11 -3044 3090 0
-3045 3090 0
11 -3045 3091 0
-3046 3091 0
11 -3046 0
12 3092 0
-3047 3092 0
12 -3047 3093 0
-3048 3093 0
12 -3048 3094 0
-3049 3094 0
12 -3049 3095 0
-3050 3095 0
12 -3050 3096 0
-3051 3096 0
12 -3051 3097 0
-3052 3097 0
12 -3052 3098 0
-3053 3098 0
12 -3053 3099 0
-3054 3099 0
12 -3054 3100 0
-3055 3100 0
12 -3055 3101 0
-3056 3101 0
12 -3056 3102 0
-3057 3102 0
12 -3057 3103 0
-3058 3103 0
12 -3058 3104 0
-3059 3104 0
12 -3059 3105 0
-3060 3105 0
12 -3060 3106 0
-3061 3106 0
12 -3061 3107 0
-3062 3107 0
12 -3062 3108 0
-3063 3108 0
12 -3063 3109 0
-3064 3109 0
12 -3064 3110 0
-3065 3110 0
12 -3065 3111 0
-3066 3111 0
12 -3066 3112 0
-3067 3112 0
12 -3067 3113 0
-3068 3113 0
12 -3068 3114 0
-3069 3114 0
12 -3069 3115 0
-3070 3115 0
12 -3070 3116 0
-3071 3116 0
12 -3071 3117 0
-3072 3117 0
12 -3072 3118 0
-3073 3118 0
12 -3073 3119 0
-3074 3119 0
12 -3074 3120 0
-3075 3120 0
12 -3075 3121 0
-3076 3121 0
12 -3076 3122 0
-3077 3122 0
12 -3077 3123 0
-3078 3123 0
12 -3078 3124 0
-3079 3124 0
12 -3079 3125 0
-3080 3125 0
12 -3080 3126 0
-3081 3126 0
12 -3081 3127 0
-3082 3127 0
12 -3082 3128 0
-3083 3128 0
12 -3083 3129 0
-3084 3129 0
12 -3084 3130 0
-3085 3130 0
12 -3085 3131 0
-3086 3131 0
12 -3086 3132 0
-3087 3132 0
12 -3087 3133 0
-3088 3133 0
12 -3088 3134 0
-3089 3134 0
12 -3089 3135 0
-3090 3135 0
12 -3090 3136 0
-3091 3136 0
12 -3091 0
13 3137 0
-3092 3137 0
13 -3092 3138 0
-3093 3138 0
13 -3093 3139 0
-3094 3139 0
13 -3094 3140 0
-3095 3140 0
13 -3095 3141 0
-3096 3141 0
13 -3096 3142 0
-3097 3142 0
13 -3097 3143 0
-3098 3143 0
13 -3098 3144 0
-3099 3144 0
13 -3099 3145 0
-3100 3145 0
13 -3100 3146 0
-3101 3146 0
13 -3101 3147 0
-3102 3147 0
13 -3102 3148 0
-3103 3148 0
13 -3103 3149 0
-3104 3149 0
13 -3104 3150 0
-3105 3150 0
13 -3105 3151 0
-3106 3151 0
13 -3106 3152 0
-3107 3152 0
13 -3107 3153 0
-3108 3153 0
13 -3108 3154 0
-3109 3154 0
13 -3109 3155 0
-3110 3155 0
13 -3110 3156 0
-3111 3156 0
13 -3111 3157 0
-3112 3157 0
13 -3112 3158 0
-3113 3158 0
13 -3113 3159 0
-3114 3159 0
13 -3114 3160 0
-3115 3160 0
13 -3115 3161 0
-3116 3161 0
13 -3116 3162 0
-3117 3162 0
13 -3117 3163 0
-3118 3163 0
13 -3118 3164 0
-3119 3164 0
13 -3119 3165 0
-3120 3165 0
13 -3120 3166 0
-3121 3166 0
13 -3121 3167 0
-3122 3167 0
13 -3122 3168 0
-3123 3168 0
13 -3123 3169 0
-3124 3169 0
13 -3124 3170 0
-3125 3170 0
13 -3125 3171 0
-3126 3171 0
13 -3126 3172 0
-3127 3172 0
13 -3127 3173 0
-3128 3173 0
13 -3128 3174 0
-3129 3174 0
13 -3129 3175 0
-3130 3175 0
13 -3130 3176 0
-3131 3176 0
13 -3131 3177 0
-3132 3177 0
13 -3132 3178 0
-3133 3178 0
13 -3133 3179 0
-3134 3179 0
13 -3134 3180 0
-3135 3180 0
13 -3135 3181 0
-3136 3181 0
13 -3136 0
14 3182 0
-3137 3182 0
14 -3137 3183 0
-3138 3183 0
14 -3138 3184 0
-3139 3184 0
14 -3139 3185 0
-3140 3185 0
14 -3140 3186 0
-3141 3186 0
14 -3141 3187 0
-3142 3187 0
14 -3142 3188 0
-3143 3188 0
14 -3143 3189 0
-3144 3189 0
14 -3144 3190 0
-3145 3190 0
14 -3145 3191 0
-3146 3191 0
14 -3146 3192 0
-3147 3192 0
14 -3147 3193 0
-3148 3193 0
14 -3148 3194 0
-3149 3194 0
14 -3149 3195 0
-3150 3195 0
14 -3150 3196 0
-3151 3196 0
14 -3151 3197 0
-3152 3197 0
14 -3152 3198 0
-3153 3198 0
14 -3153 3199 0
-3154 3199 0
14 -3154 3200 0
-3155 3200 0
14 -3155 3201 0
-3156 3201 0
14 -3156 3202 0
-3157 3202 0
14 -3157 3203 0
-3158 3203 0
14 -3158 3204 0
-3159 3204 0
14 -3159 3205 0
-3160 3205 0
14 -3160 3206 0
-3161 3206 0
14 -3161 3207 0
-3162 3207 0
14 -3162 3208 0
-3163 3208 0
14 -3163 3209 0
-3164 3209 0
14 -3164 3210 0
-3165 3210 0
14 -3165 3211 0
-3166 3211 0
14 -3166 3212 0
-3167 3212 0
14 -3167 3213 0
-3168 3213 0
14 -3168 3214 0
-3169 3214 0
14 -3169 3215 0
-3170 3215 0
14 -3170 3216 0
-3171 3216 0
14 -3171 3217 0
-3172 3217 0
14 -3172 3218 0
-3173 3218 0
14 -3173 3219 0
-3174 3219 0
14 -3174 3220 0
-3175 3220 0
14 -3175 3221 0
-3176 3221 0
14 -3176 3222 0
-3177 3222 0
14 -3177 3223 0
-3178 3223 0
14 -3178 3224 0
-3179 3224 0
14 -3179 3225 0
-3180 3225 0
14 -3180 3226 0
-3181 3226 0
14 -3181 0
15 3227 0
-3182 3227 0
15 -3182 3228 0
-3183 3228 0
15 -3183 3229 0
-3184 3229 0
15 -3184 3230 0
-3185 3230 0
15 -3185 3231 0
-3186 3231 0
15 -3186 3232 0
-3187 3232 0
15 -3187 3233 0
-3188 3233 0
15 -3188 3234 0
-3189 3234 0
15 -3189 3235 0
-3190 3235 0
15 -3190 3236 0
-3191 3236 0
15 -3191 3237 0
-3192 3237 0
15 -3192 3238 0
-3193 3238 0
15 -3193 3239 0
-3194 3239 0
15 -3194 3240 0
-3195 3240 0
15 -3195 3241 0
-3196 3241 0
15 -3196 3242 0
-3197 3242 0
15 -3197 3243 0
-3198 3243 0
15 -3198 3244 0
-3199 3244 0
15 -3199 3245 0
-3200 3245 0
15 -3200 3246 0
-3201 3246 0
15 -3201 3247 0
-3202 3247 0
15 -3202 3248 0
-3203 3248 0
15 -3203 3249 0
-3204 3249 0
15 -3204 3250 0
-3205 3250 0
15 -3205 3251 0
-3206 3251 0
15 -3206 3252 0
-3207 3252 0
15 -3207 3253 0
-3208 3253 0
15 -3208 3254 0
-3209 3254 0
15 -3209 3255 0
-3210 3255 0
15 -3210 3256 0
-3211 3256 0
15 -3211 3257 0
-3212 3257 0
15 -3212 3258 0
-3213 3258 0
15 -3213 3259 0
-3214 3259 0
15 -3214 3260 0
-3215 3260 0
15 -3215 3261 0
-3216 3261 0
15 -3216 3262 0
-3217 3262 0
15 -3217 3263 0
-3218 3263 0
15 -3218 3264 0
-3219 3264 0
15 -3219 3265 0
-3220 3265 0
15 -3220 3266 0
-3221 3266 0
15 -3221 3267 0
-3222 3267 0
15 -3222 3268 0
-3223 3268 0
15 -3223 3269 0
-3224 3269 0
15 -3224 3270 0
-3225 3270 0
15 -3225 3271 0
-3226 3271 0
15 -3226 0
16 3272 0
-3227 3272 0
16 -3227 3273 0
-3228 3273 0
16 -3228 3274 0
-3229 3274 0
16 -3229 3275 0
-3230 3275 0
16 -3230 3276 0
-3231 3276 0
16 -3231 3277 0
-3232 3277 0
16 -3232 3278 0
-3233 3278 0
16 -3233 3279 0
-3234 3279 0
16 -3234 3280 0
-3235 3280 0
16 -3235 3281 0
-3236 3281 0
16 -3236 3282 0
-3237 3282 0
16 -3237 3283 0
-3238 3283 0
16 -3238 3284 0
-3239 3284 0
16 -3239 3285 0
-3240 3285 0
16 -3240 3286 0
-3241 3286 0
16 -3241 3287 0
-3242 3287 0
16 -3242 3288 0
-3243 3288 0
16 -3243 3289 0
-3244 3289 0
16 -3244 3290 0
-3245 3290 0
16 -3245 3291 0
-3246 3291 0
16 -3246 3292 0
-3247 3292 0
16 -3247 3293 0
-3248 3293 0
16 -3248 3294 0
-3249 3294 0
16 -3249 3295 0
-3250 3295 0
16 -3250 3296 0
-3251 3296 0
16 -3251 3297 0
-3252 3297 0
16 -3252 3298 0
-3253 3298 0
16 -3253 3299 0
-3254 3299 0
16 -3254 3300 0
-3255 3300 0
16 -3255 3301 0
-3256 3301 0
16 -3256 3302 0
-3257 3302 0
16 -3257 3303 0
-3258 3303 0
16 -3258 3304 0
-3259 3304 0
16 -3259 3305 0
-3260 3305 0
16 -3260 3306 0
-3261 3306 0
16 -3261 3307 0
-3262 3307 0
16 -3262 3308 0
-3263 3308 0
16 -3263 3309 0
-3264 3309 0
16 -3264 3310 0
-3265 3310 0
16 -3265 3311 0
-3266 3311 0
16 -3266 3312 0
-3267 3312 0
16 -3267 3313 0
-3268 3313 0
16 -3268 3314 0
-3269 3314 0
16 -3269 3315 0
-3270 3315 0
16 -3270 3316 0
-3271 3316 0
16 -3271 0
17 3317 0
-3272 3317 0
17 -3272 3318 0
-3273 3318 0
17 -3273 3319 0
-3274 3319 0
17 -3274 3320 0
-3275 3320 0
17 -3275 3321 0
-3276 3321 0
17 -3276 3322 0
-3277 3322 0
17 -3277 3323 0
-3278 3323 0
17 -3278 3324 0
-3279 3324 0
17 -3279 3325 0
-3280 3325 0
17 -3280 3326 0
-3281 3326 0
17 -3281 3327 0
-3282 3327 0
17 -3282 3328 0
-3283 3328 0
17 -3283 3329 0
-3284 3329 0
17 -3284 3330 0
-3285 3330 0
17 -3285 3331 0
-3286 3331 0
17 -3286 3332 0
-3287 3332 0
17 -3287 3333 0
-3288 3333 0
17 -3288 3334 0
-3289 3334 0
17 -3289 3335 0
-3290 3335 0
17 -3290 3336 0
-3291 3336 0
17 -3291 3337 0
-3292 3337 0
17 -3292 3338 0
-3293 3338 0
17 -3293 3339 0
-3294 3339 0
17 -3294 3340 0
-3295 3340 0
17 -3295 3341 0
-3296 3341 0
17 -3296 3342 0
-3297 3342 0
17 -3297 3343 0
-3298 3343 0
17 -3298 3344 0
-3299 3344 0
17 -3299 3345 0
-3300 3345 0
17 -3300 3346 0
-3301 3346 0
17 -3301 3347 0
-3302 3347 0
17 -3302 3348 0
-3303 3348 0
17 -3303 3349 0
-3304 3349 0
17 -3304 3350 0
-3305 3350 0
17 -3305 3351 0
-3306 3351 0
17 -3306 3352 0
-3307 3352 0
17 -3307 3353 0
-3308 3353 0
17 -3308 3354 0
-3309 3354 0
17 -3309 3355 0
-3310 3355 0
17 -3310 3356 0
-3311 3356 0
17 -3311 3357 0
-3312 3357 0
17 -3312 3358 0
-3313 3358 0
17 -3313 3359 0
-3314 3359 0
17 -3314 3360 0
-3315 3360 0
17 -3315 3361 0
-3316 3361 0
17 -3316 0
18 3362 0
-3317 3362 0
18 -3317 3363 0
-3318 3363 0
18 -3318 3364 0
-3319 3364 0
18 -3319 3365 0
-3320 3365 0
18 -3320 3366 0
-3321 3366 0
18 -3321 3367 0
-3322 3367 0
18 -3322 3368 0
-3323 3368 0
18 -3323 3369 0
-3324 3369 0
18 -3324 3370 0
-3325 3370 0
18 -3325 3371 0
-3326 3371 0
18 -3326 3372 0
-3327 3372 0
18 -3327 3373 0
-3328 3373 0
18 -3328 3374 0
-3329 3374 0
18 -3329 3375 0
-3330 3375 0
18 -3330 3376 0
-3331 3376 0
18 -3331 3377 0
-3332 3377 0
18 -3332 3378 0
-3333 3378 0
18 -3333 3379 0
-3334 3379 0
18 -3334 3380 0
-3335 3380 0
18 -3335 3381 0
-3336 3381 0
18 -3336 3382 0
-3337 3382 0
18 -3337 3383 0
-3338 3383 0
18 -3338 3384 0
-3339 3384 0
18 -3339 3385 0
-3340 3385 0
18 -3340 3386 0
-3341 3386 0
18 -3341 3387 0
-3342 3387 0
18 -3342 3388 0
-3343 3388 0
18 -3343 3389 0
-3344 3389 0
18 -3344 3390 0
-3345 3390 0
18 -3345 3391 0
-3346 3391 0
18 -3346 3392 0
-3347 3392 0
18 -3347 3393 0
-3348 3393 0
18 -3348 3394 0
-3349 3394 0
18 -3349 3395 0
-3350 3395 0
18 -3350 3396 0
-3351 3396 0
18 -3351 3397 0
-3352 3397 0
18 -3352 3398 0
-3353 3398 0
18 -3353 3399 0
-3354 3399 0
18 -3354 3400 0
-3355 3400 0
18 -3355 3401 0
-3356 3401 0
18 -3356 3402 0
-3357 3402 0
18 -3357 3403 0
-3358 3403 0
18 -3358 3404 0
-3359 3404 0
18 -3359 3405 0
-3360 3405 0
18 -3360 3406 0
-3361 3406 0
18 -3361 0
19 3407 0
-3362 3407 0
19 -3362 3408 0
-3363 3408 0
19 -3363 3409 0
-3364 3409 0
19 -3364 3410 0
-3365 3410 0
19 -3365 3411 0
-3366 3411 0
19 -3366 3412 0
-3367 3412 0
19 -3367 3413 0
-3368 3413 0
19 -3368 3414 0
-3369 3414 0
19 -3369 3415 0
-3370 3415 0
19 -3370 3416 0
-3371 3416 0
19 -3371 3417 0
-3372 3417 0
19 -3372 3418 0
-3373 3418 0
19 -3373 3419 0
-3374 3419 0
19 -3374 3420 0
-3375 3420 0
19 -3375 3421 0
-3376 3421 0
19 -3376 3422 0
-3377 3422 0
19 -3377 3423 0
-3378 3423 0
19 -3378 3424 0
-3379 3424 0
19 -3379 3425 0
-3380 3425 0
19 -3380 3426 0
-3381 3426 0
19 -3381 3427 0
-3382 3427 0
19 -3382 3428 0
-3383 3428 0
19 -3383 3429 0
-3384 3429 0
19 -3384 3430 0
-3385 3430 0
19 -3385 3431 0
-3386 3431 0
19 -3386 3432 0
-3387 3432 0
19 -3387 3433 0
-3388 3433 0
19 -3388 3434 0
-3389 3434 0
19 -3389 3435 0
-3390 3435 0
19 -3390 3436 0
-3391 3436 0
19 -3391 3437 0
-3392 3437 0
19 -3392 3438 0
-3393 3438 0
19 -3393 3439 0
-3394 3439 0
19 -3394 3440 0
-3395 3440 0
19 -3395 3441 0
-3396 3441 0
19 -3396 3442 0
-3397 3442 0
19 -3397 3443 0
-3398 3443 0
19 -3398 3444 0
-3399 3444 0
19 -3399 3445 0
-3400 3445 0
19 -3400 3446 0
-3401 3446 0
19 -3401 3447 0
-3402 3447 0
19 -3402 3448 0
-3403 3448 0
19 -3403 3449 0
-3404 3449 0
19 -3404 3450 0
-3405 3450 0
19 -3405 3451 0
-3406 3451 0
19 -3406 0
20 3452 0
-3407 3452 0
20 -3407 3453 0
-3408 3453 0
20 -3408 3454 0
-3409 3454 0
20 -3409 3455 0
-3410 3455 0
20 -3410 3456 0
-3411 3456 0
20 -3411 3457 0
-3412 3457 0
20 -3412 3458 0
-3413 3458 0
20 -3413 3459 0
-3414 3459 0
20 -3414 3460 0
-3415 3460 0
20 -3415 3461 0
-3416 3461 0
20 -3416 3462 0
-3417 3462 0
20 -3417 3463 0
-3418 3463 0
20 -3418 3464 0
-3419 3464 0
20 -3419 3465 0
-3420 3465 0
20 -3420 3466 0
-3421 3466 0
20 -3421 3467 0
-3422 3467 0
20 -3422 3468 0
-3423 3468 0
20 -3423 3469 0
-3424 3469 0
20 -3424 3470 0
-3425 3470 0
20 -3425 3471 0
-3426 3471 0
20 -3426 3472 0
-3427 3472 0
20 -3427 3473 0
-3428 3473 0
20 -3428 3474 0
-3429 3474 0
20 -3429 3475 0
-3430 3475 0
20 -3430 3476 0
-3431 3476 0
20 -3431 3477 0
-3432 3477 0
20 -3432 3478 0
-3433 3478 0
20 -3433 3479 0
-3434 3479 0
20 -3434 3480 0
-3435 3480 0
20 -3435 3481 0
-3436 3481 0
20 -3436 3482 0
-3437 3482 0
20 -3437 3483 0
-3438 3483 0
20 -3438 3484 0
-3439 3484 0
20 -3439 3485 0
-3440 3485 0
20 -3440 3486 0
-3441 3486 0
20 -3441 3487 0
-3442 3487 0
20 -3442 3488 0
-3443 3488 0
20 -3443 3489 0
-3444 3489 0
20 -3444 3490 0
-3445 3490 0
20 -3445 3491 0
-3446 3491 0
20 -3446 3492 0
-3447 3492 0
20 -3447 3493 0
-3448 3493 0
20 -3448 3494 0
-3449 3494 0
20 -3449 3495 0
-3450 3495 0
20 -3450 3496 0
-3451 3496 0
20 -3451 0
21 3497 0
-3452 3497 0
21 -3452 3498 0
-3453 3498 0
21 -3453 3499 0
-3454 3499 0
21 -3454 3500 0
-3455 3500 0
21 -3455 3501 0
-3456 3501 0
21 -3456 3502 0
-3457 3502 0
21 -3457 3503 0
-3458 3503 0
21 -3458 3504 0
-3459 3504 0
21 -3459 3505 0
-3460 3505 0
21 -3460 3506 0
-3461 3506 0
21 -3461 3507 0
-3462 3507 0
21 -3462 3508 0
-3463 3508 0
21 -3463 3509 0
-3464 3509 0
21 -3464 3510 0
-3465 3510 0
21 -3465 3511 0
-3466 3511 0
21 -3466 3512 0
-3467 3512 0
21 -3467 3513 0
-3468 3513 0
21 -3468 3514 0
-3469 3514 0
21 -3469 3515 0
-3470 3515 0
21 -3470 3516 0
-3471 3516 0
21 -3471 3517 0
-3472 3517 0
21 -3472 3518 0
-3473 3518 0
21 -3473 3519 0
-3474 3519 0
21 -3474 3520 0
-3475 3520 0
21 -3475 3521 0
-3476 3521 0
21 -3476 3522 0
-3477 3522 0
21 -3477 3523 0
-3478 3523 0
21 -3478 3524 0
-3479 3524 0
21 -3479 3525 0
-3480 3525 0
21 -3480 3526 0
-3481 3526 0
21 -3481 3527 0
-3482 3527 0
21 -3482 3528 0
-3483 3528 0
21 -3483 3529 0
-3484 3529 0
21 -3484 3530 0
-3485 3530 0
21 -3485 3531 0
-3486 3531 0
21 -3486 3532 0
-3487 3532 0
21 -3487 3533 0
-3488 3533 0
21 -3488 3534 0
-3489 3534 0
21 -3489 3535 0
-3490 3535 0
21 -3490 3536 0
-3491 3536 0
21 -3491 3537 0
-3492 3537 0
21 -3492 3538 0
-3493 3538 0
21 -3493 3539 0
-3494 3539 0
21 -3494 3540 0
-3495 3540 0
21 -3495 3541 0
-3496 3541 0
21 -3496 0
22 3542 0
-3497 3542 0
22 -3497 3543 0
-3498 3543 0
22 -3498 3544 0
-3499 3544 0
22 -3499 3545 0
-3500 3545 0
22 -3500 3546 0
-3501 3546 0
22 -3501 3547 0
-3502 3547 0
22 -3502 3548 0
-3503 3548 0
22 -3503 3549 0
-3504 3549 0
22 -3504 3550 0
-3505 3550 0
22 -3505 3551 0
-3506 3551 0
22 -3506 3552 0
-3507 3552 0
22 -3507 3553 0
-3508 3553 0
22 -3508 3554 0
-3509 3554 0
22 -3509 3555 0
-3510 3555 0
22 -3510 3556 0
-3511 3556 0
22 -3511 3557 0
-3512 3557 0
22 -3512 3558 0
-3513 3558 0
22 -3513 3559 0
-3514 3559 0
22 -3514 3560 0
-3515 3560 0
22 -3515 3561 0
-3516 3561 0
22 -3516 3562 0
-3517 3562 0
22 -3517 3563 0
-3518 3563 0
22 -3518 3564 0
-3519 3564 0
22 -3519 3565 0
-3520 3565 0
22 -3520 3566 0
-3521 3566 0
22 -3521 3567 0
-3522 3567 0
22 -3522 3568 0
-3523 3568 0
22 -3523 3569 0
-3524 3569 0
22 -3524 3570 0
-3525 3570 0
22 -3525 3571 0
-3526 3571 0
22 -3526 3572 0
-3527 3572 0
22 -3527 3573 0
-3528 3573 0
22 -3528 3574 0
-3529 3574 0
22 -3529 3575 0
-3530 3575 0
22 -3530 3576 0
-3531 3576 0
22 -3531 3577 0
-3532 3577 0
22 -3532 3578 0
-3533 3578 0
22 -3533 3579 0
-3534 3579 0
22 -3534 3580 0
-3535 3580 0
22 -3535 3581 0
-3536 3581 0
22 -3536 3582 0
-3537 3582 0
22 -3537 3583 0
-3538 3583 0
22 -3538 3584 0
-3539 3584 0
22 -3539 3585 0
-3540 3585 0
22 -3540 3586 0
-3541 3586 0
22 -3541 0
23 3587 0
-3542 3587 0
23 -3542 3588 0
-3543 3588 0
23 -3543 3589 0
-3544 3589 0
23 -3544 3590 0
-3545 3590 0
23 -3545 3591 0
-3546 3591 0
23 -3546 3592 0
-3547 3592 0
23 -3547 3593 0
-3548 3593 0
23 -3548 3594 0
-3549 3594 0
23 -3549 3595 0
-3550 3595 0
23 -3550 3596 0
-3551 3596 0
23 -3551 3597 0
-3552 3597 0
23 -3552 3598 0
-3553 3598 0
23 -3553 3599 0
-3554 3599 0
23 -3554 3600 0
-3555 3600 0
23 -3555 3601 0
-3556 3601 0
23 -3556 3602 0
-3557 3602 0
23 -3557 3603 0
-3558 3603 0
23 -3558 3604 0
-3559 3604 0
23 -3559 3605 0
-3560 3605 0
23 -3560 3606 0
-3561 3606 0
23 -3561 3607 0
-3562 3607 0
23 -3562 3608 0
-3563 3608 0
23 -3563 3609 0
-3564 3609 0
23 -3564 3610 0
-3565 3610 0
23 -3565 3611 0
-3566 3611 0
23 -3566 3612 0
-3567 3612 0
23 -3567 3613 0
-3568 3613 0
23 -3568 3614 0
-3569 3614 0
23 -3569 3615 0
-3570 3615 0
23 -3570 3616 0
-3571 3616 0
23 -3571 3617 0
-3572 3617 0
23 -3572 3618 0
-3573 3618 0
23 -3573 3619 0
-3574 3619 0
23 -3574 3620 0
-3575 3620 0
23 -3575 3621 0
-3576 3621 0
23 -3576 3622 0
-3577 3622 0
23 -3577 3623 0
-3578 3623 0
23 -3578 3624 0
-3579 3624 0
23 -3579 3625 0
-3580 3625 0
23 -3580 3626 0
-3581 3626 0
23 -3581 3627 0
-3582 3627 0
23 -3582 3628 0
-3583 3628 0
23 -3583 3629 0
-3584 3629 0
23 -3584 3630 0
-3585 3630 0
23 -3585 3631 0
-3586 3631 0
23 -3586 0
24 3632 0
-3587 3632 0
24 -3587 3633 0
-3588 3633 0
24 -3588 3634 0
-3589 3634 0
24 -3589 3635 0
-3590 3635 0
24 -3590 3636 0
-3591 3636 0
24 -3591 3637 0
-3592 3637 0
24 -3592 3638 0
-3593 3638 0
24 -3593 3639 0
-3594 3639 0
24 -3594 3640 0
-3595 3640 0
24 -3595 3641 0
-3596 3641 0
24 -3596 3642 0
-3597 3642 0
24 -3597 3643 0
-3598 3643 0
24 -3598 3644 0
-3599 3644 0
24 -3599 3645 0
-3600 3645 0
24 -3600 3646 0
-3601 3646 0
24 -3601 3647 0
-3602 3647 0
24 -3602 3648 0
-3603 3648 0
24 -3603 3649 0
-3604 3649 0
24 -3604 3650 0
-3605 3650 0
24 -3605 3651 0
-3606 3651 0
24 -3606 3652 0
-3607 3652 0
24 -3607 3653 0
-3608 3653 0
24 -3608 3654 0
-3609 3654 0
24 -3609 3655 0
-3610 3655 0
24 -3610 3656 0
-3611 3656 0
24 -3611 3657 0
-3612 3657 0
24 -3612 3658 0
-3613 3658 0
24 -3613 3659 0
-3614 3659 0
24 -3614 3660 0
-3615 3660 0
24 -3615 3661 0
-3616 3661 0
24 -3616 3662 0
-3617 3662 0
24 -3617 3663 0
-3618 3663 0
24 -3618 3664 0
-3619 3664 0
24 -3619 3665 0
-3620 3665 0
24 -3620 3666 0
-3621 3666 0
24 -3621 3667 0
-3622 3667 0
24 -3622 3668 0
-3623 3668 0
24 -3623 3669 0
-3624 3669 0
24 -3624 3670 0
-3625 3670 0
24 -3625 3671 0
-3626 3671 0
24 -3626 3672 0
-3627 3672 0
24 -3627 3673 0
-3628 3673 0
24 -3628 3674 0
-3629 3674 0
24 -3629 3675 0
-3630 3675 0
24 -3630 3676 0
-3631 3676 0
24 -3631 0
25 3677 0
-3632 3677 0
25 -3632 3678 0
-3633 3678 0
25 -3633 3679 0
-3634 3679 0
25 -3634 3680 0
-3635 3680 0
25 -3635 3681 0
-3636 3681 0
25 -3636 3682 0
-3637 3682 0
25 -3637 3683 0
-3638 3683 0
25 -3638 3684 0
-3639 3684 0
25 -3639 3685 0
-3640 3685 0
25 -3640 3686 0
-3641 3686 0
25 -3641 3687 0
-3642 3687 0
25 -3642 3688 0
-3643 3688 0
25 -3643 3689 0
-3644 3689 0
25 -3644 3690 0
-3645 3690 0
25 -3645 3691 0
-3646 3691 0
25 -3646 3692 0
-3647 3692 0
25 -3647 3693 0
-3648 3693 0
25 -3648 3694 0
-3649 3694 0
25 -3649 3695 0
-3650 3695 0
25 -3650 3696 0
-3651 3696 0
25 -3651 3697 0
-3652 3697 0
25 -3652 3698 0
-3653 3698 0
25 -3653 3699 0
-3654 3699 0
25 -3654 3700 0
-3655 3700 0
25 -3655 3701 0
-3656 3701 0
25 -3656 3702 0
-3657 3702 0
25 -3657 3703 0
-3658 3703 0
25 -3658 3704 0
-3659 3704 0
25 -3659 3705 0
-3660 3705 0
25 -3660 3706 0
-3661 3706 0
25 -3661 3707 0
-3662 3707 0
25 -3662 3708 0
-3663 3708 0
25 -3663 3709 0
-3664 3709 0
25 -3664 3710 0
-3665 3710 0
25 -3665 3711 0
-3666 3711 0
25 -3666 3712 0
-3667 3712 0
25 -3667 3713 0
-3668 3713 0
25 -3668 3714 0
-3669 3714 0
25 -3669 3715 0
-3670 3715 0
25 -3670 3716 0
-3671 3716 0
25 -3671 3717 0
-3672 3717 0
25 -3672 3718 0
-3673 3718 0
25 -3673 3719 0
-3674 3719 0
25 -3674 3720 0
-3675 3720 0
25 -3675 3721 0
-3676 3721 0
25 -3676 0
26 3722 0
-3677 3722 0
26 -3677 3723 0
-3678 3723 0
26 -3678 3724 0
-3679 3724 0
26 -3679 3725 0
-3680 3725 0
26 -3680 3726 0
-3681 3726 0
26 -3681 3727 0
-3682 3727 0
26 -3682 3728 0
-3683 3728 0
26 -3683 3729 0
-3684 3729 0
26 -3684 3730 0
-3685 3730 0
26 -3685 3731 0
-3686 3731 0
26 -3686 3732 0
-3687 3732 0
26 -3687 3733 0
-3688 3733 0
26 -3688 3734 0
-3689 3734 0
26 -3689 3735 0
-3690 3735 0
26 -3690 3736 0
-3691 3736 0
26 -3691 3737 0
-3692 3737 0
26 -3692 3738 0
-3693 3738 0
26 -3693 3739 0
-3694 3739 0
26 -3694 3740 0
-3695 3740 0
26 -3695 3741 0
-3696 3741 0
26 -3696 3742 0
-3697 3742 0
26 -3697 3743 0
-3698 3743 0
26 -3698 3744 0
-3699 3744 0
26 -3699 3745 0
-3700 3745 0
26 -3700 3746 0
-3701 3746 0
26 -3701 3747 0
-3702 3747 0
26 -3702 3748 0
-3703 3748 0
26 -3703 3749 0
-3704 3749 0
26 -3704 3750 0
-3705 3750 0
26 -3705 3751 0
-3706 3751 0
26 -3706 3752 0
-3707 3752 0
26 -3707 3753 0
-3708 3753 0
26 -3708 3754 0
-3709 3754 0
26 -3709 3755 0
-3710 3755 0
26 -3710 3756 0
-3711 3756 0
26 -3711 3757 0
-3712 3757 0
26 -3712 3758 0
-3713 3758 0
26 -3713 3759 0
-3714 3759 0
26 -3714 3760 0
-3715 3760 0
26 -3715 3761 0
-3716 3761 0
26 -3716 3762 0
-3717 3762 0
26 -3717 3763 0
-3718 3763 0
26 -3718 3764 0
-3719 3764 0
26 -3719 3765 0
-3720 3765 0
26 -3720 3766 0
-3721 3766 0
26 -3721 0
27 3767 0
-3722 3767 0
27 -3722 3768 0
-3723 3768 0
27 -3723 3769 0
-3724 3769 0
27 -3724 3770 0
-3725 3770 0
27 -3725 3771 0
-3726 3771 0
27 -3726 3772 0
-3727 3772 0
27 -3727 3773 0
-3728 3773 0
27 -3728 3774 0
-3729 3774 0
27 -3729 3775 0
-3730 3775 0
27 -3730 3776 0
-3731 3776 0
27 -3731 3777 0
-3732 3777 0
27 -3732 3778 0
-3733 3778 0
27 -3733 3779 0
-3734 3779 0
27 -3734 3780 0
-3735 3780 0
27 -3735 3781 0
-3736 3781 0
27 -3736 3782 0
-3737 3782 0
27 -3737 3783 0
-3738 3783 0
27 -3738 3784 0
-3739 3784 0
27 -3739 3785 0
-3740 3785 0
27 -3740 3786 0
-3741 3786 0
27 -3741 3787 0
-3742 3787 0
27 -3742 3788 0
-3743 3788 0
27 -3743 3789 0
-3744 3789 0
27 -3744 3790 0
-3745 3790 0
27 -3745 3791 0
-3746 3791 0
27 -3746 3792 0
-3747 3792 0
27 -3747 3793 0
-3748 3793 0
27 -3748 3794 0
-3749 3794 0
27 -3749 3795 0
-3750 3795 0
27 -3750 3796 0
-3751 3796 0
27 -3751 3797 0
-3752 3797 0
27 -3752 3798 0
-3753 3798 0
27 -3753 3799 0
-3754 3799 0
27 -3754 3800 0
-3755 3800 0
27 -3755 3801 0
-3756 3801 0
27 -3756 3802 0
-3757 3802 0
27 -3757 3803 0
-3758 3803 0
27 -3758 3804 0
-3759 3804 0
27 -3759 3805 0
-3760 3805 0
27 -3760 3806 0
-3761 3806 0
27 -3761 3807 0
-3762 3807 0
27 -3762 3808 0
-3763 3808 0
27 -3763 3809 0
-3764 3809 0
27 -3764 3810 0
-3765 3810 0
27 -3765 3811 0
-3766 3811 0
27 -3766 0
28 3812 0
-3767 3812 0
28 -3767 3813 0
-3768 3813 0
28 -3768 3814 0
-3769 3814 0
28 -3769 3815 0
-3770 3815 0
28 -3770 3816 0
-3771 3816 0
28 -3771 3817 0
-3772 3817 0
28 -3772 3818 0
-3773 3818 0
28 -3773 3819 0
-3774 3819 0
28 -3774 3820 0
-3775 3820 0
28 -3775 3821 0
-3776 3821 0
28 -3776 3822 0
-3777 3822 0
28 -3777 3823 0
-3778 3823 0
28 -3778 3824 0
-3779 3824 0
28 -3779 3825 0
-3780 3825 0
28 -3780 3826 0
-3781 3826 0
28 -3781 3827 0
-3782 3827 0
28 -3782 3828 0
-3783 3828 0
28 -3783 3829 0
-3784 3829 0
28 -3784 3830 0
-3785 3830 0
28 -3785 3831 0
-3786 3831 0
28 -3786 3832 0
-3787 3832 0
28 -3787 3833 0
-3788 3833 0
28 -3788 3834 0
-3789 3834 0
28 -3789 3835 0
-3790 3835 0
28 -3790 3836 0
-3791 3836 0
28 -3791 3837 0
-3792 3837 0
28 -3792 3838 0
-3793 3838 0
28 -3793 3839 0
-3794 3839 0
28 -3794 3840 0
-3795 3840 0
28 -3795 3841 0
-3796 3841 0
28 -3796 3842 0
-3797 3842 0
28 -3797 3843 0
-3798 3843 0
28 -3798 3844 0
-3799 3844 0
28 -3799 3845 0
-3800 3845 0
28 -3800 3846 0
-3801 3846 0
28 -3801 3847 0
-3802 3847 0
28 -3802 3848 0
-3803 3848 0
28 -3803 3849 0
-3804 3849 0
28 -3804 3850 0
-3805 3850 0
28 -3805 3851 0
-3806 3851 0
28 -3806 3852 0
-3807 3852 0
28 -3807 3853 0
-3808 3853 0
28 -3808 3854 0
-3809 3854 0
28 -3809 3855 0
-3810 3855 0
28 -3810 3856 0
-3811 3856 0
28 -3811 0
29 3857 0
-3812 3857 0
29 -3812 3858 0
-3813 3858 0
29 -3813 3859 0
-3814 3859 0
29 -3814 3860 0
-3815 3860 0
29 -3815 3861 0
-3816 3861 0
29 -3816 3862 0
-3817 3862 0
29 -3817 3863 0
-3818 3863 0
29 -3818 3864 0
-3819 3864 0
29 -3819 3865 0
-3820 3865 0
29 -3820 3866 0
-3821 3866 0
29 -3821 3867 0
-3822 3867 0
29 -3822 3868 0
-3823 3868 0
29 -3823 3869 0
-3824 3869 0
29 -3824 3870 0
-3825 3870 0
29 -3825 3871 0
-3826 3871 0
29 -3826 3872 0
-3827 3872 0
29 -3827 3873 0
-3828 3873 0
29 -3828 3874 0
-3829 3874 0
29 -3829 3875 0
-3830 3875 0
29 -3830 3876 0
-3831 3876 0
29 -3831 3877 0
-3832 3877 0
29 -3832 3878 0
-3833 3878 0
29 -3833 3879 0
-3834 3879 0
29 -3834 3880 0
-3835 3880 0
29 -3835 3881 0
-3836 3881 0
29 -3836 3882 0
-3837 3882 0
29 -3837 3883 0
-3838 3883 0
29 -3838 3884 0
-3839 3884 0
29 -3839 3885 0
-3840 3885 0
29 -3840 3886 0
-3841 3886 0
29 -3841 3887 0
-3842 3887 0
29 -3842 3888 0
-3843 3888 0
29 -3843 3889 0
-3844 3889 0
29 -3844 3890 0
-3845 3890 0
29 -3845 3891 0
-3846 3891 0
29 -3846 3892 0
-3847 3892 0
29 -3847 3893 0
-3848 3893 0
29 -3848 3894 0
-3849 3894 0
29 -3849 3895 0
-3850 3895 0
29 -3850 3896 0
-3851 3896 0
29 -3851 3897 0
-3852 3897 0
29 -3852 3898 0
-3853 3898 0
29 -3853 3899 0
-3854 3899 0
29 -3854 3900 0
-3855 3900 0
29 -3855 3901 0
-3856 3901 0
29 -3856 0
30 3902 0
-3857 3902 0
30 -3857 3903 0
-3858 3903 0
30 -3858 3904 0
-3859 3904 0
30 -3859 3905 0
-3860 3905 0
30 -3860 3906 0
-3861 3906 0
30 -3861 3907 0
-3862 3907 0
30 -3862 3908 0
-3863 3908 0
30 -3863 3909 0
-3864 3909 0
30 -3864 3910 0
-3865 3910 0
30 -3865 3911 0
-3866 3911 0
30 -3866 3912 0
-3867 3912 0
30 -3867 3913 0
-3868 3913 0
30 -3868 3914 0
-3869 3914 0
30 -3869 3915 0
-3870 3915 0
30 -3870 3916 0
-3871 3916 0
30 -3871 3917 0
-3872 3917 0
30 -3872 3918 0
-3873 3918 0
30 -3873 3919 0
-3874 3919 0
30 -3874 3920 0
-3875 3920 0
30 -3875 3921 0
-3876 3921 0
30 -3876 3922 0
-3877 3922 0
30 -3877 3923 0
-3878 3923 0
30 -3878 3924 0
-3879 3924 0
30 -3879 3925 0
-3880 3925 0
30 -3880 3926 0
-3881 3926 0
30 -3881 3927 0
-3882 3927 0
30 -3882 3928 0
-3883 3928 0
30 -3883 3929 0
-3884 3929 0
30 -3884 3930 0
-3885 3930 0
30 -3885 3931 0
-3886 3931 0
30 -3886 3932 0
-3887 3932 0
30 -3887 3933 0
-3888 3933 0
30 -3888 3934 0
-3889 3934 0
30 -3889 3935 0
-3890 3935 0
30 -3890 3936 0
-3891 3936 0
30 -3891 3937 0
-3892 3937 0
30 -3892 3938 0
-3893 3938 0
30 -3893 3939 0
-3894 3939 0
30 -3894 3940 0
-3895 3940 0
30 -3895 3941 0
-3896 3941 0
30 -3896 3942 0
-3897 3942 0
30 -3897 3943 0
-3898 3943 0
30 -3898 3944 0
-3899 3944 0
30 -3899 3945 0
-3900 3945 0
30 -3900 3946 0
-3901 3946 0
30 -3901 0
31 3947 0
-3902 3947 0
31 -3902 3948 0
-3903 3948 0
31 -3903 3949 0
-3904 3949 0
31 -3904 3950 0
-3905 3950 0
31 -3905 3951 0
-3906 3951 0
31 -3906 3952 0
-3907 3952 0
31 -3907 3953 0
-3908 3953 0
31 -3908 3954 0
-3909 3954 0
31 -3909 3955 0
-3910 3955 0
31 -3910 3956 0
-3911 3956 0
31 -3911 3957 0
-3912 3957 0
31 -3912 3958 0
-3913 3958 0
31 -3913 3959 0
-3914 3959 0
31 -3914 3960 0
-3915 3960 0
31 -3915 3961 0
-3916 3961 0
31 -3916 3962 0
-3917 3962 0
31 -3917 3963 0
-3918 3963 0
31 -3918 3964 0
-3919 3964 0
31 -3919 3965 0
-3920 3965 0
31 -3920 3966 0
-3921 3966 0
31 -3921 3967 0
-3922 3967 0
31 -3922 3968 0
-3923 3968 0
31 -3923 3969 0
-3924 3969 0
31 -3924 3970 0
-3925 3970 0
31 -3925 3971 0
-3926 3971 0
31 -3926 3972 0
-3927 3972 0
31 -3927 3973 0
-3928 3973 0
31 -3928 3974 0
-3929 3974 0
31 -3929 3975 0
-3930 3975 0
31 -3930 3976 0
-3931 3976 0
31 -3931 3977 0
-3932 3977 0
31 -3932 3978 0
-3933 3978 0
31 -3933 3979 0
-3934 3979 0
31 -3934 3980 0
-3935 3980 0
31 -3935 3981 0
-3936 3981 0
31 -3936 3982 0
-3937 3982 0
31 -3937 3983 0
-3938 3983 0
31 -3938 3984 0
-3939 3984 0
31 -3939 3985 0
-3940 3985 0
31 -3940 3986 0
-3941 3986 0
31 -3941 3987 0
-3942 3987 0
31 -3942 3988 0
-3943 3988 0
31 -3943 3989 0
-3944 3989 0
31 -3944 3990 0
-3945 3990 0
31 -3945 3991 0
-3946 3991 0
31 -3946 0
32 3992 0
-3947 3992 0
32 -3947 3993 0
-3948 3993 0
32 -3948 3994 0
-3949 3994 0
32 -3949 3995 0
-3950 3995 0
32 -3950 3996 0
-3951 3996 0
32 -3951 3997 0
-3952 3997 0
32 -3952 3998 0
-3953 3998 0
32 -3953 3999 0
-3954 3999 0
32 -3954 4000 0
-3955 4000 0
32 -3955 4001 0
-3956 4001 0
32 -3956 4002 0
-3957 4002 0
32 -3957 4003 0
-3958 4003 0
32 -3958 4004 0
-3959 4004 0
32 -3959 4005 0
-3960 4005 0
32 -3960 4006 0
-3961 4006 0
32 -3961 4007 0
-3962 4007 0
32 -3962 4008 0
-3963 4008 0
32 -3963 4009 0
-3964 4009 0
32 -3964 4010 0
-3965 4010 0
32 -3965 4011 0
-3966 4011 0
32 -3966 4012 0
-3967 4012 0
32 -3967 4013 0
-3968 4013 0
32 -3968 4014 0
-3969 4014 0
32 -3969 4015 0
-3970 4015 0
32 -3970 4016 0
-3971 4016 0
32 -3971 4017 0
-3972 4017 0
32 -3972 4018 0
-3973 4018 0
32 -3973 4019 0
-3974 4019 0
32 -3974 4020 0
-3975 4020 0
32 -3975 4021 0
-3976 4021 0
32 -3976 4022 0
-3977 4022 0
32 -3977 4023 0
-3978 4023 0
32 -3978 4024 0
-3979 4024 0
32 -3979 4025 0
-3980 4025 0
32 -3980 4026 0
-3981 4026 0
32 -3981 4027 0
-3982 4027 0
32 -3982 4028 0
-3983 4028 0
32 -3983 4029 0
-3984 4029 0
32 -3984 4030 0
-3985 4030 0
32 -3985 4031 0
-3986 4031 0
32 -3986 4032 0
-3987 4032 0
32 -3987 4033 0
-3988 4033 0
32 -3988 4034 0
-3989 4034 0
32 -3989 4035 0
-3990 4035 0
32 -3990 4036 0
-3991 4036 0
32 -3991 0
33 4037 0
-3992 4037 0
33 -3992 4038 0
-3993 4038 0
33 -3993 4039 0
-3994 4039 0
33 -3994 4040 0
-3995 4040 0
33 -3995 4041 0
-3996 4041 0
33 -3996 4042 0
-3997 4042 0
33 -3997 4043 0
-3998 4043 0
33 -3998 4044 0
-3999 4044 0
33 -3999 4045 0
-4000 4045 0
33 -4000 4046 0
-4001 4046 0
33 -4001 4047 0
-4002 4047 0
33 -4002 4048 0
-4003 4048 0
33 -4003 4049 0
-4004 4049 0
33 -4004 4050 0
-4005 4050 0
33 -4005 4051 0
-4006 4051 0
33 -4006 4052 0
-4007 4052 0
33 -4007 4053 0
-4008 4053 0
33 -4008 4054 0
-4009 4054 0
33 -4009 4055 0
-4010 4055 0
33 -4010 4056 0
-4011 4056 0
33 -4011 4057 0
-4012 4057 0
33 -4012 4058 0
-4013 4058 0
33 -4013 4059 0
-4014 4059 0
33 -4014 4060 0
-4015 4060 0
33 -4015 4061 0
-4016 4061 0
33 -4016 4062 0
-4017 4062 0
33 -4017 4063 0
-4018 4063 0
33 -4018 4064 0
-4019 4064 0
33 -4019 4065 0
-4020 4065 0
33 -4020 4066 0
-4021 4066 0
33 -4021 4067 0
-4022 4067 0
33 -4022 4068 0
-4023 4068 0
33 -4023 4069 0
-4024 4069 0
33 -4024 4070 0
-4025 4070 0
33 -4025 4071 0
-4026 4071 0
33 -4026 4072 0
-4027 4072 0
33 -4027 4073 0
-4028 4073 0
33 -4028 4074 0
-4029 4074 0
33 -4029 4075 0
-4030 4075 0
33 -4030 4076 0
-4031 4076 0
33 -4031 4077 0
-4032 4077 0
33 -4032 4078 0
-4033 4078 0
33 -4033 4079 0
-4034 4079 0
33 -4034 4080 0
-4035 4080 0
33 -4035 4081 0
-4036 4081 0
33 -4036 0
34 4082 0
-4037 4082 0
34 -4037 4083 0
-4038 4083 0
34 -4038 4084 0
-4039 4084 0
34 -4039 4085 0
-4040 4085 0
34 -4040 4086 0
-4041 4086 0
34 -4041 4087 0
-4042 4087 0
34 -4042 4088 0
-4043 4088 0
34 -4043 4089 0
-4044 4089 0
34 -4044 4090 0
-4045 4090 0
34 -4045 4091 0
-4046 4091 0
34 -4046 4092 0
-4047 4092 0
34 -4047 4093 0
-4048 4093 0
34 -4048 4094 0
-4049 4094 0
34 -4049 4095 0
-4050 4095 0
34 -4050 4096 0
-4051 4096 0
34 -4051 4097 0
-4052 4097 0
34 -4052 4098 0
-4053 4098 0
34 -4053 4099 0
-4054 4099 0
34 -4054 4100 0
-4055 4100 0
34 -4055 4101 0
-4056 4101 0
34 -4056 4102 0
-4057 4102 0
34 -4057 4103 0
-4058 4103 0
34 -4058 4104 0
-4059 4104 0
34 -4059 4105 0
-4060 4105 0
34 -4060 4106 0
-4061 4106 0
34 -4061 4107 0
-4062 4107 0
34 -4062 4108 0
-4063 4108 0
34 -4063 4109 0
-4064 4109 0
34 -4064 4110 0
-4065 4110 0
34 -4065 4111 0
-4066 4111 0
34 -4066 4112 0
-4067 4112 0
34 -4067 4113 0
-4068 4113 0
34 -4068 4114 0
-4069 4114 0
34 -4069 4115 0
-4070 4115 0
34 -4070 4116 0
-4071 4116 0
34 -4071 4117 0
-4072 4117 0
34 -4072 4118 0
-4073 4118 0
34 -4073 4119 0
-4074 4119 0
34 -4074 4120 0
-4075 4120 0
34 -4075 4121 0
-4076 4121 0
34 -4076 4122 0
-4077 4122 0
34 -4077 4123 0
-4078 4123 0
34 -4078 4124 0
-4079 4124 0
34 -4079 4125 0
-4080 4125 0
34 -4080 4126 0
-4081 4126 0
34 -4081 0
35 4127 0
-4082 4127 0
35 -4082 4128 0
-4083 4128 0
35 -4083 4129 0
-4084 4129 0
35 -4084 4130 0
-4085 4130 0
35 -4085 4131 0
-4086 4131 0
35 -4086 4132 0
-4087 4132 0
35 -4087 4133 0
-4088 4133 0
35 -4088 4134 0
-4089 4134 0
35 -4089 4135 0
-4090 4135 0
35 -4090 4136 0
-4091 4136 0
35 -4091 4137 0
-4092 4137 0
35 -4092 4138 0
-4093 4138 0
35 -4093 4139 0
-4094 4139 0
35 -4094 4140 0
-4095 4140 0
35 -4095 4141 0
-4096 4141 0
35 -4096 4142 0
-4097 4142 0
35 -4097 4143 0
-4098 4143 0
35 -4098 4144 0
-4099 4144 0
35 -4099 4145 0
-4100 4145 0
35 -4100 4146 0
-4101 4146 0
35 -4101 4147 0
-4102 4147 0
35 -4102 4148 0
-4103 4148 0
35 -4103 4149 0
-4104 4149 0
35 -4104 4150 0
-4105 4150 0
35 -4105 4151 0
-4106 4151 0
35 -4106 4152 0
-4107 4152 0
35 -4107 4153 0
-4108 4153 0
35 -4108 4154 0
-4109 4154 0
35 -4109 4155 0
-4110 4155 0
35 -4110 4156 0
-4111 4156 0
35 -4111 4157 0
-4112 4157 0
35 -4112 4158 0
-4113 4158 0
35 -4113 4159 0
-4114 4159 0
35 -4114 4160 0
-4115 4160 0
35 -4115 4161 0
-4116 4161 0
35 -4116 4162 0
-4117 4162 0
35 -4117 4163 0
-4118 4163 0
35 -4118 4164 0
-4119 4164 0
35 -4119 4165 0
-4120 4165 0
35 -4120 4166 0
-4121 4166 0
35 -4121 4167 0
-4122 4167 0
35 -4122 4168 0
-4123 4168 0
35 -4123 4169 0
-4124 4169 0
35 -4124 4170 0
-4125 4170 0
35 -4125 4171 0
-4126 4171 0
35 -4126 0
36 4172 0
-4127 4172 0
36 -4127 4173 0
-4128 4173 0
36 -4128 4174 0
-4129 4174 0
36 -4129 4175 0
-4130 4175 0
36 -4130 4176 0
-4131 4176 0
36 -4131 4177 0
-4132 4177 0
36 -4132 4178 0
-4133 4178 0
36 -4133 4179 0
-4134 4179 0
36 -4134 4180 0
-4135 4180 0
36 -4135 4181 0
-4136 4181 0
36 -4136 4182 0
-4137 4182 0
36 -4137 4183 0
-4138 4183 0
36 -4138 4184 0
-4139 4184 0
36 -4139 4185 0
-4140 4185 0
36 -4140 4186 0
-4141 4186 0
36 -4141 4187 0
-4142 4187 0
36 -4142 4188 0
-4143 4188 0
36 -4143 4189 0
-4144 4189 0
36 -4144 4190 0
-4145 4190 0
36 -4145 4191 0
-4146 4191 0
36 -4146 4192 0
-4147 4192 0
36 -4147 4193 0
-4148 4193 0
36 -4148 4194 0
-4149 4194 0
36 -4149 4195 0
-4150 4195 0
36 -4150 4196 0
-4151 4196 0
36 -4151 4197 0
-4152 4197 0
36 -4152 4198 0
-4153 4198 0
36 -4153 4199 0
-4154 4199 0
36 -4154 4200 0
-4155 4200 0
36 -4155 4201 0
-4156 4201 0
36 -4156 4202 0
-4157 4202 0
36 -4157 4203 0
-4158 4203 0
36 -4158 4204 0
-4159 4204 0
36 -4159 4205 0
-4160 4205 0
36 -4160 4206 0
-4161 4206 0
36 -4161 4207 0
-4162 4207 0
36 -4162 4208 0
-4163 4208 0
36 -4163 4209 0
-4164 4209 0
36 -4164 4210 0
-4165 4210 0
36 -4165 4211 0
-4166 4211 0
36 -4166 4212 0
-4167 4212 0
36 -4167 4213 0
-4168 4213 0
36 -4168 4214 0
-4169 4214 0
36 -4169 4215 0
-4170 4215 0
36 -4170 4216 0
-4171 4216 0
36 -4171 0
37 4217 0
-4172 4217 0
37 -4172 4218 0
-4173 4218 0
37 -4173 4219 0
-4174 4219 0
37 -4174 4220 0
-4175 4220 0
37 -4175 4221 0
-4176 4221 0
37 -4176 4222 0
-4177 4222 0
37 -4177 4223 0
-4178 4223 0
37 -4178 4224 0
-4179 4224 0
37 -4179 4225 0
-4180 4225 0
37 -4180 4226 0
-4181 4226 0
37 -4181 4227 0
-4182 4227 0
37 -4182 4228 0
-4183 4228 0
37 -4183 4229 0
-4184 4229 0
37 -4184 4230 0
-4185 4230 0
37 -4185 4231 0
-4186 4231 0
37 -4186 4232 0
-4187 4232 0
37 -4187 4233 0
-4188 4233 0
37 -4188 4234 0
-4189 4234 0
37 -4189 4235 0
-4190 4235 0
37 -4190 4236 0
-4191 4236 0
37 -4191 4237 0
-4192 4237 0
37 -4192 4238 0
-4193 4238 0
37 -4193 4239 0
-4194 4239 0
37 -4194 4240 0
-4195 4240 0
37 -4195 4241 0
-4196 4241 0
37 -4196 4242 0
-4197 4242 0
37 -4197 4243 0
-4198 4243 0
37 -4198 4244 0
-4199 4244 0
37 -4199 4245 0
-4200 4245 0
37 -4200 4246 0
-4201 4246 0
37 -4201 4247 0
-4202 4247 0
37 -4202 4248 0
-4203 4248 0
37 -4203 4249 0
-4204 4249 0
37 -4204 4250 0
-4205 4250 0
37 -4205 4251 0
-4206 4251 0
37 -4206 4252 0
-4207 4252 0
37 -4207 4253 0
-4208 4253 0
37 -4208 4254 0
-4209 4254 0
37 -4209 4255 0
-4210 4255 0
37 -4210 4256 0
-4211 4256 0
37 -4211 4257 0
-4212 4257 0
37 -4212 4258 0
-4213 4258 0
37 -4213 4259 0
-4214 4259 0
37 -4214 4260 0
-4215 4260 0
37 -4215 4261 0
-4216 4261 0
37 -4216 0
38 4262 0
-4217 4262 0
38 -4217 4263 0
-4218 4263 0
38 -4218 4264 0
-4219 4264 0
38 -4219 4265 0
-4220 4265 0
38 -4220 4266 0
-4221 4266 0
38 -4221 4267 0
-4222 4267 0
38 -4222 4268 0
-4223 4268 0
38 -4223 4269 0
-4224 4269 0
38 -4224 4270 0
-4225 4270 0
38 -4225 4271 0
-4226 4271 0
38 -4226 4272 0
-4227 4272 0
38 -4227 4273 0
-4228 4273 0
38 -4228 4274 0
-4229 4274 0
38 -4229 4275 0
-4230 4275 0
38 -4230 4276 0
-4231 4276 0
38 -4231 4277 0
-4232 4277 0
38 -4232 4278 0
-4233 4278 0
38 -4233 4279 0
-4234 4279 0
38 -4234 4280 0
-4235 4280 0
38 -4235 4281 0
-4236 4281 0
38 -4236 4282 0
-4237 4282 0
38 -4237 4283 0
-4238 4283 0
38 -4238 4284 0
-4239 4284 0
38 -4239 4285 0
-4240 4285 0
38 -4240 4286 0
-4241 4286 0
38 -4241 4287 0
-4242 4287 0
38 -4242 4288 0
-4243 4288 0
38 -4243 4289 0
-4244 4289 0
38 -4244 4290 0
-4245 4290 0
38 -4245 4291 0
-4246 4291 0
38 -4246 4292 0
-4247 4292 0
38 -4247 4293 0
-4248 4293 0
38 -4248 4294 0
-4249 4294 0
38 -4249 4295 0
-4250 4295 0
38 -4250 4296 0
-4251 4296 0
38 -4251 4297 0
-4252 4297 0
38 -4252 4298 0
-4253 4298 0
38 -4253 4299 0
-4254 4299 0
38 -4254 4300 0
-4255 4300 0
38 -4255 4301 0
-4256 4301 0
38 -4256 4302 0
-4257 4302 0
38 -4257 4303 0
-4258 4303 0
38 -4258 4304 0
-4259 4304 0
38 -4259 4305 0
-4260 4305 0
38 -4260 4306 0
-4261 4306 0
38 -4261 0
39 4307 0
-4262 4307 0
39 -4262 4308 0
-4263 4308 0
39 -4263 4309 0
-4264 4309 0
39 -4264 4310 0
-4265 4310 0
39 -4265 4311 0
-4266 4311 0
39 -4266 4312 0
-4267 4312 0
39 -4267 4313 0
-4268 4313 0
39 -4268 4314 0
-4269 4314 0
39 -4269 4315 0
-4270 4315 0
39 -4270 4316 0
-4271 4316 0
39 -4271 4317 0
-4272 4317 0
39 -4272 4318 0
-4273 4318 0
39 -4273 4319 0
-4274 4319 0
39 -4274 4320 0
-4275 4320 0
39 -4275 4321 0
-4276 4321 0
39 -4276 4322 0
-4277 4322 0
39 -4277 4323 0
-4278 4323 0
39 -4278 4324 0
-4279 4324 0
39 -4279 4325 0
-4280 4325 0
39 -4280 4326 0
-4281 4326 0
39 -4281 4327 0
-4282 4327 0
39 -4282 4328 0
-4283 4328 0
39 -4283 4329 0
-4284 4329 0
39 -4284 4330 0
-4285 4330 0
39 -4285 4331 0
-4286 4331 0
39 -4286 4332 0
-4287 4332 0
39 -4287 4333 0
-4288 4333 0
39 -4288 4334 0
-4289 4334 0
39 -4289 4335 0
-4290 4335 0
39 -4290 4336 0
-4291 4336 0
39 -4291 4337 0
-4292 4337 0
39 -4292 4338 0
-4293 4338 0
39 -4293 4339 0
-4294 4339 0
39 -4294 4340 0
-4295 4340 0
39 -4295 4341 0
-4296 4341 0
39 -4296 4342 0
-4297 4342 0
39 -4297 4343 0
-4298 4343 0
39 -4298 4344 0
-4299 4344 0
39 -4299 4345 0
-4300 4345 0
39 -4300 4346 0
-4301 4346 0
39 -4301 4347 0
-4302 4347 0
39 -4302 4348 0
-4303 4348 0
39 -4303 4349 0
-4304 4349 0
39 -4304 4350 0
-4305 4350 0
39 -4305 4351 0
-4306 4351 0
39 -4306 0
40 4352 0
-4307 4352 0
40 -4307 4353 0
-4308 4353 0
40 -4308 4354 0
-4309 4354 0
40 -4309 4355 0
-4310 4355 0
40 -4310 4356 0
-4311 4356 0
40 -4311 4357 0
-4312 4357 0
40 -4312 4358 0
-4313 4358 0
40 -4313 4359 0
-4314 4359 0
40 -4314 4360 0
-4315 4360 0
40 -4315 4361 0
-4316 4361 0
40 -4316 4362 0
-4317 4362 0
40 -4317 4363 0
-4318 4363 0
40 -4318 4364 0
-4319 4364 0
40 -4319 4365 0
-4320 4365 0
40 -4320 4366 0
-4321 4366 0
40 -4321 4367 0
-4322 4367 0
40 -4322 4368 0
-4323 4368 0
40 -4323 4369 0
-4324 4369 0
40 -4324 4370 0
-4325 4370 0
40 -4325 4371 0
-4326 4371 0
40 -4326 4372 0
-4327 4372 0
40 -4327 4373 0
-4328 4373 0
40 -4328 4374 0
-4329 4374 0
40 -4329 4375 0
-4330 4375 0
40 -4330 4376 0
-4331 4376 0
40 -4331 4377 0
-4332 4377 0
40 -4332 4378 0
-4333 4378 0
40 -4333 4379 0
-4334 4379 0
40 -4334 4380 0
-4335 4380 0
40 -4335 4381 0
-4336 4381 0
40 -4336 4382 0
-4337 4382 0
40 -4337 4383 0
-4338 4383 0
40 -4338 4384 0
-4339 4384 0
40 -4339 4385 0
-4340 4385 0
40 -4340 4386 0
-4341 4386 0
40 -4341 4387 0
-4342 4387 0
40 -4342 4388 0
-4343 4388 0
40 -4343 4389 0
-4344 4389 0
40 -4344 4390 0
-4345 4390 0
40 -4345 4391 0
-4346 4391 0
40 -4346 4392 0
-4347 4392 0
40 -4347 4393 0
-4348 4393 0
40 -4348 4394 0
-4349 4394 0
40 -4349 4395 0
-4350 4395 0
40 -4350 4396 0
-4351 4396 0
40 -4351 0
41 4397 0
-4352 4397 0
41 -4352 4398 0
-4353 4398 0
41 -4353 4399 0
-4354 4399 0
41 -4354 4400 0
-4355 4400 0
41 -4355 4401 0
-4356 4401 0
41 -4356 4402 0
-4357 4402 0
41 -4357 4403 0
-4358 4403 0
41 -4358 4404 0
-4359 4404 0
41 -4359 4405 0
-4360 4405 0
41 -4360 4406 0
-4361 4406 0
41 -4361 4407 0
-4362 4407 0
41 -4362 4408 0
-4363 4408 0
41 -4363 4409 0
-4364 4409 0
41 -4364 4410 0
-4365 4410 0
41 -4365 4411 0
-4366 4411 0
41 -4366 4412 0
-4367 4412 0
41 -4367 4413 0
-4368 4413 0
41 -4368 4414 0
-4369 4414 0
41 -4369 4415 0
-4370 4415 0
41 -4370 4416 0
-4371 4416 0
41 -4371 4417 0
-4372 4417 0
41 -4372 4418 0
-4373 4418 0
41 -4373 4419 0
-4374 4419 0
41 -4374 4420 0
-4375 4420 0
41 -4375 4421 0
-4376 4421 0
41 -4376 4422 0
-4377 4422 0
41 -4377 4423 0
-4378 4423 0
41 -4378 4424 0
-4379 4424 0
41 -4379 4425 0
-4380 4425 0
41 -4380 4426 0
-4381 4426 0
41 -4381 4427 0
-4382 4427 0
41 -4382 4428 0
-4383 4428 0
41 -4383 4429 0
-4384 4429 0
41 -4384 4430 0
-4385 4430 0
41 -4385 4431 0
-4386 4431 0
41 -4386 4432 0
-4387 4432 0
41 -4387 4433 0
-4388 4433 0
41 -4388 4434 0
-4389 4434 0
41 -4389 4435 0
-4390 4435 0
41 -4390 4436 0
-4391 4436 0
41 -4391 4437 0
-4392 4437 0
41 -4392 4438 0
-4393 4438 0
41 -4393 4439 0
-4394 4439 0
41 -4394 4440 0
-4395 4440 0
41 -4395 4441 0
-4396 4441 0
41 -4396 0
42 4442 0
-4397 4442 0
42 -4397 4443 0
-4398 4443 0
42 -4398 4444 0
-4399 4444 0
42 -4399 4445 0
-4400 4445 0
42 -4400 4446 0
-4401 4446 0
42 -4401 4447 0
-4402 4447 0
42 -4402 4448 0
-4403 4448 0
42 -4403 4449 0
-4404 4449 0
42 -4404 4450 0
-4405 4450 0
42 -4405 4451 0
-4406 4451 0
42 -4406 4452 0
-4407 4452 0
42 -4407 4453 0
-4408 4453 0
42 -4408 4454 0
-4409 4454 0
42 -4409 4455 0
-4410 4455 0
42 -4410 4456 0
-4411 4456 0
42 -4411 4457 0
-4412 4457 0
42 -4412 4458 0
-4413 4458 0
42 -4413 4459 0
-4414 4459 0
42 -4414 4460 0
-4415 4460 0
42 -4415 4461 0
-4416 4461 0
42 -4416 4462 0
-4417 4462 0
42 -4417 4463 0
-4418 4463 0
42 -4418 4464 0
-4419 4464 0
42 -4419 4465 0
-4420 4465 0
42 -4420 4466 0
-4421 4466 0
42 -4421 4467 0
-4422 4467 0
42 -4422 4468 0
-4423 4468 0
42 -4423 4469 0
-4424 4469 0
42 -4424 4470 0
-4425 4470 0
42 -4425 4471 0
-4426 4471 0
42 -4426 4472 0
-4427 4472 0
42 -4427 4473 0
-4428 4473 0
42 -4428 4474 0
-4429 4474 0
42 -4429 4475 0
-4430 4475 0
42 -4430 4476 0
-4431 4476 0
42 -4431 4477 0
-4432 4477 0
42 -4432 4478 0
-4433 4478 0
42 -4433 4479 0
-4434 4479 0
42 -4434 4480 0
-4435 4480 0
42 -4435 4481 0
-4436 4481 0
42 -4436 4482 0
-4437 4482 0
42 -4437 4483 0
-4438 4483 0
42 -4438 4484 0
-4439 4484 0
42 -4439 4485 0
-4440 4485 0
42 -4440 4486 0
-4441 4486 0
42 -4441 0
43 4487 0
-4442 4487 0
43 -4442 4488 0
-4443 4488 0
43 -4443 4489 0
-4444 4489 0
43 -4444 4490 0
-4445 4490 0
43 -4445 4491 0
-4446 4491 0
43 -4446 4492 0
-4447 4492 0
43 -4447 4493 0
-4448 4493 0
43 -4448 4494 0
-4449 4494 0
43 -4449 4495 0
-4450 4495 0
43 -4450 4496 0
-4451 4496 0
43 -4451 4497 0
-4452 4497 0
43 -4452 4498 0
-4453 4498 0
43 -4453 4499 0
-4454 4499 0
43 -4454 4500 0
-4455 4500 0
43 -4455 4501 0
-4456 4501 0
43 -4456 4502 0
-4457 4502 0
43 -4457 4503 0
-4458 4503 0
43 -4458 4504 0
-4459 4504 0
43 -4459 4505 0
-4460 4505 0
43 -4460 4506 0
-4461 4506 0
43 -4461 4507 0
-4462 4507 0
43 -4462 4508 0
-4463 4508 0
43 -4463 4509 0
-4464 4509 0
43 -4464 4510 0
-4465 4510 0
43 -4465 4511 0
-4466 4511 0
43 -4466 4512 0
-4467 4512 0
43 -4467 4513 0
-4468 4513 0
43 -4468 4514 0
-4469 4514 0
43 -4469 4515 0
-4470 4515 0
43 -4470 4516 0
-4471 4516 0
43 -4471 4517 0
-4472 4517 0
43 -4472 4518 0
-4473 4518 0
43 -4473 4519 0
-4474 4519 0
43 -4474 4520 0
-4475 4520 0
43 -4475 4521 0
-4476 4521 0
43 -4476 4522 0
-4477 4522 0
43 -4477 4523 0
-4478 4523 0
43 -4478 4524 0
-4479 4524 0
43 -4479 4525 0
-4480 4525 0
43 -4480 4526 0
-4481 4526 0
43 -4481 4527 0
-4482 4527 0
43 -4482 4528 0
-4483 4528 0
43 -4483 4529 0
-4484 4529 0
43 -4484 4530 0
-4485 4530 0
43 -4485 4531 0
-4486 4531 0
43 -4486 0
44 4532 0
-4487 4532 0
44 -4487 4533 0
-4488 4533 0
44 -4488 4534 0
-4489 4534 0
44 -4489 4535 0
-4490 4535 0
44 -4490 4536 0
-4491 4536 0
44 -4491 4537 0
-4492 4537 0
44 -4492 4538 0
-4493 4538 0
44 -4493 4539 0
-4494 4539 0
44 -4494 4540 0
-4495 4540 0
44 -4495 4541 0
-4496 4541 0
44 -4496 4542 0
-4497 4542 0
44 -4497 4543 0
-4498 4543 0
44 -4498 4544 0
-4499 4544 0
44 -4499 4545 0
-4500 4545 0
44 -4500 4546 0
-4501 4546 0
44 -4501 4547 0
-4502 4547 0
44 -4502 4548 0
-4503 4548 0
44 -4503 4549 0
-4504 4549 0
44 -4504 4550 0
-4505 4550 0
44 -4505 4551 0
-4506 4551 0
44 -4506 4552 0
-4507 4552 0
44 -4507 4553 0
-4508 4553 0
44 -4508 4554 0
-4509 4554 0
44 -4509 4555 0
-4510 4555 0
44 -4510 4556 0
-4511 4556 0
44 -4511 4557 0
-4512 4557 0
44 -4512 4558 0
-4513 4558 0
44 -4513 4559 0
-4514 4559 0
44 -4514 4560 0
-4515 4560 0
44 -4515 4561 0
-4516 4561 0
44 -4516 4562 0
-4517 4562 0
44 -4517 4563 0
-4518 4563 0
44 -4518 4564 0
-4519 4564 0
44 -4519 4565 0
-4520 4565 0
44 -4520 4566 0
-4521 4566 0
44 -4521 4567 0
-4522 4567 0
44 -4522 4568 0
-4523 4568 0
44 -4523 4569 0
-4524 4569 0
44 -4524 4570 0
-4525 4570 0
44 -4525 4571 0
-4526 4571 0
44 -4526 4572 0
-4527 4572 0
44 -4527 4573 0
-4528 4573 0
44 -4528 4574 0
-4529 4574 0
44 -4529 4575 0
-4530 4575 0
44 -4530 4576 0
-4531 4576 0
44 -4531 0
45 4577 0
-4532 4577 0
45 -4532 4578 0
-4533 4578 0
45 -4533 4579 0
-4534 4579 0
45 -4534 4580 0
-4535 4580 0
45 -4535 4581 0
-4536 4581 0
45 -4536 4582 0
-4537 4582 0
45 -4537 4583 0
-4538 4583 0
45 -4538 4584 0
-4539 4584 0
45 -4539 4585 0
-4540 4585 0
45 -4540 4586 0
-4541 4586 0
45 -4541 4587 0
-4542 4587 0
45 -4542 4588 0
-4543 4588 0
45 -4543 4589 0
-4544 4589 0
45 -4544 4590 0
-4545 4590 0
45 -4545 4591 0
-4546 4591 0
45 -4546 4592 0
-4547 4592 0
45 -4547 4593 0
-4548 4593 0
45 -4548 4594 0
-4549 4594 0
45 -4549 4595 0
-4550 4595 0
45 -4550 4596 0
-4551 4596 0
45 -4551 4597 0
-4552 4597 0
45 -4552 4598 0
-4553 4598 0
45 -4553 4599 0
-4554 4599 0
45 -4554 4600 0
-4555 4600 0
45 -4555 4601 0
-4556 4601 0
45 -4556 4602 0
-4557 4602 0
45 -4557 4603 0
-4558 4603 0
45 -4558 4604 0
-4559 4604 0
45 -4559 4605 0
-4560 4605 0
45 -4560 4606 0
-4561 4606 0
45 -4561 4607 0
-4562 4607 0
45 -4562 4608 0
-4563 4608 0
45 -4563 4609 0
-4564 4609 0
45 -4564 4610 0
-4565 4610 0
45 -4565 4611 0
-4566 4611 0
45 -4566 4612 0
-4567 4612 0
45 -4567 4613 0
-4568 4613 0
45 -4568 4614 0
-4569 4614 0
45 -4569 4615 0
-4570 4615 0
45 -4570 4616 0
-4571 4616 0
45 -4571 4617 0
-4572 4617 0
45 -4572 4618 0
-4573 4618 0
45 -4573 4619 0
-4574 4619 0
45 -4574 4620 0
-4575 4620 0
45 -4575 4621 0
-4576 4621 0
45 -4576 0
46 4622 0
-4577 4622 0
46 -4577 4623 0
-4578 4623 0
46 -4578 4624 0
-4579 4624 0
46 -4579 4625 0
-4580 4625 0
46 -4580 4626 0
-4581 4626 0
46 -4581 4627 0
-4582 4627 0
46 -4582 4628 0
-4583 4628 0
46 -4583 4629 0
-4584 4629 0
46 -4584 4630 0
-4585 4630 0
46 -4585 4631 0
-4586 4631 0
46 -4586 4632 0
-4587 4632 0
46 -4587 4633 0
-4588 4633 0
46 -4588 4634 0
-4589 4634 0
46 -4589 4635 0
-4590 4635 0
46 -4590 4636 0
-4591 4636 0
46 -4591 4637 0
-4592 4637 0
46 -4592 4638 0
-4593 4638 0
46 -4593 4639 0
-4594 4639 0
46 -4594 4640 0
-4595 4640 0
46 -4595 4641 0
-4596 4641 0
46 -4596 4642 0
-4597 4642 0
46 -4597 4643 0
-4598 4643 0
46 -4598 4644 0
-4599 4644 0
46 -4599 4645 0
-4600 4645 0
46 -4600 4646 0
-4601 4646 0
46 -4601 4647 0
-4602 4647 0
46 -4602 4648 0
-4603 4648 0
46 -4603 4649 0
-4604 4649 0
46 -4604 4650 0
-4605 4650 0
46 -4605 4651 0
-4606 4651 0
46 -4606 4652 0
-4607 4652 0
46 -4607 4653 0
-4608 4653 0
46 -4608 4654 0
-4609 4654 0
46 -4609 4655 0
-4610 4655 0
46 -4610 4656 0
-4611 4656 0
46 -4611 4657 0
-4612 4657 0
46 -4612 4658 0
-4613 4658 0
46 -4613 4659 0
-4614 4659 0
46 -4614 4660 0
-4615 4660 0
46 -4615 4661 0
-4616 4661 0
46 -4616 4662 0
-4617 4662 0
46 -4617 4663 0
-4618 4663 0
46 -4618 4664 0
-4619 4664 0
46 -4619 4665 0
-4620 4665 0
46 -4620 4666 0
-4621 4666 0
46 -4621 0
47 4667 0
-4622 4667 0
47 -4622 4668 0
-4623 4668 0
47 -4623 4669 0
-4624 4669 0
47 -4624 4670 0
-4625 4670 0
47 -4625 4671 0
-4626 4671 0
47 -4626 4672 0
-4627 4672 0
47 -4627 4673 0
-4628 4673 0
47 -4628 4674 0
-4629 4674 0
47 -4629 4675 0
-4630 4675 0
47 -4630 4676 0
-4631 4676 0
47 -4631 4677 0
-4632 4677 0
47 -4632 4678 0
-4633 4678 0
47 -4633 4679 0
-4634 4679 0
47 -4634 4680 0
-4635 4680 0
47 -4635 4681 0
-4636 4681 0
47 -4636 4682 0
-4637 4682 0
47 -4637 4683 0
-4638 4683 0
47 -4638 4684 0
-4639 4684 0
47 -4639 4685 0
-4640 4685 0
47 -4640 4686 0
-4641 4686 0
47 -4641 4687 0
-4642 4687 0
47 -4642 4688 0
-4643 4688 0
47 -4643 4689 0
-4644 4689 0
47 -4644 4690 0
-4645 4690 0
47 -4645 4691 0
-4646 4691 0
47 -4646 4692 0
-4647 4692 0
47 -4647 4693 0
-4648 4693 0
47 -4648 4694 0
-4649 4694 0
47 -4649 4695 0
-4650 4695 0
47 -4650 4696 0
-4651 4696 0
47 -4651 4697 0
-4652 4697 0
47 -4652 4698 0
-4653 4698 0
47 -4653 4699 0
-4654 4699 0
47 -4654 4700 0
-4655 4700 0
47 -4655 4701 0
-4656 4701 0
47 -4656 4702 0
-4657 4702 0
47 -4657 4703 0
-4658 4703 0
47 -4658 4704 0
-4659 4704 0
47 -4659 4705 0
-4660 4705 0
47 -4660 4706 0
-4661 4706 0
47 -4661 4707 0
-4662 4707 0
47 -4662 4708 0
-4663 4708 0
47 -4663 4709 0
-4664 4709 0
47 -4664 4710 0
-4665 4710 0
47 -4665 4711 0
-4666 4711 0
47 -4666 0
48 4712 0
-4667 4712 0
48 -4667 4713 0
-4668 4713 0
48 -4668 4714 0
-4669 4714 0
48 -4669 4715 0
-4670 4715 0
48 -4670 4716 0
-4671 4716 0
48 -4671 4717 0
-4672 4717 0
48 -4672 4718 0
-4673 4718 0
48 -4673 4719 0
-4674 4719 0
48 -4674 4720 0
-4675 4720 0
48 -4675 4721 0
-4676 4721 0
48 -4676 4722 0
-4677 4722 0
48 -4677 4723 0
-4678 4723 0
48 -4678 4724 0
-4679 4724 0
48 -4679 4725 0
-4680 4725 0
48 -4680 4726 0
-4681 4726 0
48 -4681 4727 0
-4682 4727 0
48 -4682 4728 0
-4683 4728 0
48 -4683 4729 0
-4684 4729 0
48 -4684 4730 0
-4685 4730 0
48 -4685 4731 0
-4686 4731 0
48 -4686 4732 0
-4687 4732 0
48 -4687 4733 0
-4688 4733 0
48 -4688 4734 0
-4689 4734 0
48 -4689 4735 0
-4690 4735 0
48 -4690 4736 0
-4691 4736 0
48 -4691 4737 0
-4692 4737 0
48 -4692 4738 0
-4693 4738 0
48 -4693 4739 0
-4694 4739 0
48 -4694 4740 0
-4695 4740 0
48 -4695 4741 0
-4696 4741 0
48 -4696 4742 0
-4697 4742 0
48 -4697 4743 0
-4698 4743 0
48 -4698 4744 0
-4699 4744 0
48 -4699 4745 0
-4700 4745 0
48 -4700 4746 0
-4701 4746 0
48 -4701 4747 0
-4702 4747 0
48 -4702 4748 0
-4703 4748 0
48 -4703 4749 0
-4704 4749 0
48 -4704 4750 0
-4705 4750 0
48 -4705 4751 0
-4706 4751 0
48 -4706 4752 0
-4707 4752 0
48 -4707 4753 0
-4708 4753 0
48 -4708 4754 0
-4709 4754 0
48 -4709 4755 0
-4710 4755 0
48 -4710 4756 0
-4711 4756 0
48 -4711 0
49 4757 0
-4712 4757 0
49 -4712 4758 0
-4713 4758 0
49 -4713 4759 0
-4714 4759 0
49 -4714 4760 0
-4715 4760 0
49 -4715 4761 0
-4716 4761 0
49 -4716 4762 0
-4717 4762 0
49 -4717 4763 0
-4718 4763 0
49 -4718 4764 0
-4719 4764 0
49 -4719 4765 0
-4720 4765 0
49 -4720 4766 0
-4721 4766 0
49 -4721 4767 0
-4722 4767 0
49 -4722 4768 0
-4723 4768 0
49 -4723 4769 0
-4724 4769 0
49 -4724 4770 0
-4725 4770 0
49 -4725 4771 0
-4726 4771 0
49 -4726 4772 0
-4727 4772 0
49 -4727 4773 0
-4728 4773 0
49 -4728 4774 0
-4729 4774 0
49 -4729 4775 0
-4730 4775 0
49 -4730 4776 0
-4731 4776 0
49 -4731 4777 0
-4732 4777 0
49 -4732 4778 0
-4733 4778 0
49 -4733 4779 0
-4734 4779 0
49 -4734 4780 0
-4735 4780 0
49 -4735 4781 0
-4736 4781 0
49 -4736 4782 0
-4737 4782 0
49 -4737 4783 0
-4738 4783 0
49 -4738 4784 0
-4739 4784 0
49 -4739 4785 0
-4740 4785 0
49 -4740 4786 0
-4741 4786 0
49 -4741 4787 0
-4742 4787 0
49 -4742 4788 0
-4743 4788 0
49 -4743 4789 0
-4744 4789 0
49 -4744 4790 0
-4745 4790 0
49 -4745 4791 0
-4746 4791 0
49 -4746 4792 0
-4747 4792 0
49 -4747 4793 0
-4748 4793 0
49 -4748 4794 0
-4749 4794 0
49 -4749 4795 0
-4750 4795 0
49 -4750 4796 0
-4751 4796 0
49 -4751 4797 0
-4752 4797 0
49 -4752 4798 0
-4753 4798 0
49 -4753 4799 0
-4754 4799 0
49 -4754 4800 0
-4755 4800 0
49 -4755 4801 0
-4756 4801 0
49 -4756 0
50 4802 0
-4757 4802 0
50 -4757 4803 0
-4758 4803 0
50 -4758 4804 0
-4759 4804 0
50 -4759 4805 0
-4760 4805 0
50 -4760 4806 0
-4761 4806 0
50 -4761 4807 0
-4762 4807 0
50 -4762 4808 0
-4763 4808 0
50 -4763 4809 0
-4764 4809 0
50 -4764 4810 0
-4765 4810 0
50 -4765 4811 0
-4766 4811 0
50 -4766 4812 0
-4767 4812 0
50 -4767 4813 0
-4768 4813 0
50 -4768 4814 0
-4769 4814 0
50 -4769 4815 0
-4770 4815 0
50 -4770 4816 0
-4771 4816 0
50 -4771 4817 0
-4772 4817 0
50 -4772 4818 0
-4773 4818 0
50 -4773 4819 0
-4774 4819 0
50 -4774 4820 0
-4775 4820 0
50 -4775 4821 0
-4776 4821 0
50 -4776 4822 0
-4777 4822 0
50 -4777 4823 0
-4778 4823 0
50 -4778 4824 0
-4779 4824 0
50 -4779 4825 0
-4780 4825 0
50 -4780 4826 0
-4781 4826 0
50 -4781 4827 0
-4782 4827 0
50 -4782 4828 0
-4783 4828 0
50 -4783 4829 0
-4784 4829 0
50 -4784 4830 0
-4785 4830 0
50 -4785 4831 0
-4786 4831 0
50 -4786 4832 0
-4787 4832 0
50 -4787 4833 0
-4788 4833 0
50 -4788 4834 0
-4789 4834 0
50 -4789 4835 0
-4790 4835 0
50 -4790 4836 0
-4791 4836 0
50 -4791 4837 0
-4792 4837 0
50 -4792 4838 0
-4793 4838 0
50 -4793 4839 0
-4794 4839 0
50 -4794 4840 0
-4795 4840 0
50 -4795 4841 0
-4796 4841 0
50 -4796 4842 0
-4797 4842 0
50 -4797 4843 0
-4798 4843 0
50 -4798 4844 0
-4799 4844 0
50 -4799 4845 0
-4800 4845 0
50 -4800 4846 0
-4801 4846 0
50 -4801 0
51 4847 0
-4802 4847 0
51 -4802 4848 0
-4803 4848 0
51 -4803 4849 0
-4804 4849 0
51 -4804 4850 0
-4805 4850 0
51 -4805 4851 0
-4806 4851 0
51 -4806 4852 0
-4807 4852 0
51 -4807 4853 0
-4808 4853 0
51 -4808 4854 0
-4809 4854 0
51 -4809 4855 0
-4810 4855 0
51 -4810 4856 0
-4811 4856 0
51 -4811 4857 0
-4812 4857 0
51 -4812 4858 0
-4813 4858 0
51 -4813 4859 0
-4814 4859 0
51 -4814 4860 0
-4815 4860 0
51 -4815 4861 0
-4816 4861 0
51 -4816 4862 0
-4817 4862 0
51 -4817 4863 0
-4818 4863 0
51 -4818 4864 0
-4819 4864 0
51 -4819 4865 0
-4820 4865 0
51 -4820 4866 0
-4821 4866 0
51 -4821 4867 0
-4822 4867 0
51 -4822 4868 0
-4823 4868 0
51 -4823 4869 0
-4824 4869 0
51 -4824 4870 0
-4825 4870 0
51 -4825 4871 0
-4826 4871 0
51 -4826 4872 0
-4827 4872 0
51 -4827 4873 0
-4828 4873 0
51 -4828 4874 0
-4829 4874 0
51 -4829 4875 0
-4830 4875 0
51 -4830 4876 0
-4831 4876 0
51 -4831 4877 0
-4832 4877 0
51 -4832 4878 0
-4833 4878 0
51 -4833 4879 0
-4834 4879 0
51 -4834 4880 0
-4835 4880 0
51 -4835 4881 0
-4836 4881 0
51 -4836 4882 0
-4837 4882 0
51 -4837 4883 0
-4838 4883 0
51 -4838 4884 0
-4839 4884 0
51 -4839 4885 0
-4840 4885 0
51 -4840 4886 0
-4841 4886 0
51 -4841 4887 0
-4842 4887 0
51 -4842 4888 0
-4843 4888 0
51 -4843 4889 0
-4844 4889 0
51 -4844 4890 0
-4845 4890 0
51 -4845 4891 0
-4846 4891 0
51 -4846 0
52 4892 0
-4847 4892 0
52 -4847 4893 0
-4848 4893 0
52 -4848 4894 0
-4849 4894 0
52 -4849 4895 0
-4850 4895 0
52 -4850 4896 0
-4851 4896 0
52 -4851 4897 0
-4852 4897 0
52 -4852 4898 0
-4853 4898 0
52 -4853 4899 0
-4854 4899 0
52 -4854 4900 0
-4855 4900 0
52 -4855 4901 0
-4856 4901 0
52 -4856 4902 0
-4857 4902 0
52 -4857 4903 0
-4858 4903 0
52 -4858 4904 0
-4859 4904 0
52 -4859 4905 0
-4860 4905 0
52 -4860 4906 0
-4861 4906 0
52 -4861 4907 0
-4862 4907 0
52 -4862 4908 0
-4863 4908 0
52 -4863 4909 0
-4864 4909 0
52 -4864 4910 0
-4865 4910 0
52 -4865 4911 0
-4866 4911 0
52 -4866 4912 0
-4867 4912 0
52 -4867 4913 0
-4868 4913 0
52 -4868 4914 0
-4869 4914 0
52 -4869 4915 0
-4870 4915 0
52 -4870 4916 0
-4871 4916 0
52 -4871 4917 0
-4872 4917 0
52 -4872 4918 0
-4873 4918 0
52 -4873 4919 0
-4874 4919 0
52 -4874 4920 0
-4875 4920 0
52 -4875 4921 0
-4876 4921 0
52 -4876 4922 0
-4877 4922 0
52 -4877 4923 0
-4878 4923 0
52 -4878 4924 0
-4879 4924 0
52 -4879 4925 0
-4880 4925 0
52 -4880 4926 0
-4881 4926 0
52 -4881 4927 0
-4882 4927 0
52 -4882 4928 0
-4883 4928 0
52 -4883 4929 0
-4884 4929 0
52 -4884 4930 0
-4885 4930 0
52 -4885 4931 0
-4886 4931 0
52 -4886 4932 0
-4887 4932 0
52 -4887 4933 0
-4888 4933 0
52 -4888 4934 0
-4889 4934 0
52 -4889 4935 0
-4890 4935 0
52 -4890 4936 0
-4891 4936 0
52 -4891 0
53 4937 0
-4892 4937 0
53 -4892 4938 0
-4893 4938 0
53 -4893 4939 0
-4894 4939 0
53 -4894 4940 0
-4895 4940 0
53 -4895 4941 0
-4896 4941 0
53 -4896 4942 0
-4897 4942 0
53 -4897 4943 0
-4898 4943 0
53 -4898 4944 0
-4899 4944 0
53 -4899 4945 0
-4900 4945 0
53 -4900 4946 0
-4901 4946 0
53 -4901 4947 0
-4902 4947 0
53 -4902 4948 0
-4903 4948 0
53 -4903 4949 0
-4904 4949 0
53 -4904 4950 0
-4905 4950 0
53 -4905 4951 0
-4906 4951 0
53 -4906 4952 0
-4907 4952 0
53 -4907 4953 0
-4908 4953 0
53 -4908 4954 0
-4909 4954 0
53 -4909 4955 0
-4910 4955 0
53 -4910 4956 0
-4911 4956 0
53 -4911 4957 0
-4912 4957 0
53 -4912 4958 0
-4913 4958 0
53 -4913 4959 0
-4914 4959 0
53 -4914 4960 0
-4915 4960 0
53 -4915 4961 0
-4916 4961 0
53 -4916 4962 0
-4917 4962 0
53 -4917 4963 0
-4918 4963 0
53 -4918 4964 0
-4919 4964 0
53 -4919 4965 0
-4920 4965 0
53 -4920 4966 0
-4921 4966 0
53 -4921 4967 0
-4922 4967 0
53 -4922 4968 0
-4923 4968 0
53 -4923 4969 0
-4924 4969 0
53 -4924 4970 0
-4925 4970 0
53 -4925 4971 0
-4926 4971 0
53 -4926 4972 0
-4927 4972 0
53 -4927 4973 0
-4928 4973 0
53 -4928 4974 0
-4929 4974 0
53 -4929 4975 0
-4930 4975 0
53 -4930 4976 0
-4931 4976 0
53 -4931 4977 0
-4932 4977 0
53 -4932 4978 0
-4933 4978 0
53 -4933 4979 0
-4934 4979 0
53 -4934 4980 0
-4935 4980 0
53 -4935 4981 0
-4936 4981 0
53 -4936 0
54 4982 0
-4937 4982 0
54 -4937 4983 0
-4938 4983 0
54 -4938 4984 0
-4939 4984 0
54 -4939 4985 0
-4940 4985 0
54 -4940 4986 0
-4941 4986 0
54 -4941 4987 0
-4942 4987 0
54 -4942 4988 0
-4943 4988 0
54 -4943 4989 0
-4944 4989 0
54 -4944 4990 0
-4945 4990 0
54 -4945 4991 0
-4946 4991 0
54 -4946 4992 0
-4947 4992 0
54 -4947 4993 0
-4948 4993 0
54 -4948 4994 0
-4949 4994 0
54 -4949 4995 0
-4950 4995 0
54 -4950 4996 0
-4951 4996 0
54 -4951 4997 0
-4952 4997 0
54 -4952 4998 0
-4953 4998 0
54 -4953 4999 0
-4954 4999 0
54 -4954 5000 0
-4955 5000 0
54 -4955 5001 0
-4956 5001 0
54 -4956 5002 0
-4957 5002 0
54 -4957 5003 0
-4958 5003 0
54 -4958 5004 0
-4959 5004 0
54 -4959 5005 0
-4960 5005 0
54 -4960 5006 0
-4961 5006 0
54 -4961 5007 0
-4962 5007 0
54 -4962 5008 0
-4963 5008 0
54 -4963 5009 0
-4964 5009 0
54 -4964 5010 0
-4965 5010 0
54 -4965 5011 0
-4966 5011 0
54 -4966 5012 0
-4967 5012 0
54 -4967 5013 0
-4968 5013 0
54 -4968 5014 0
-4969 5014 0
54 -4969 5015 0
-4970 5015 0
54 -4970 5016 0
-4971 5016 0
54 -4971 5017 0
-4972 5017 0
54 -4972 5018 0
-4973 5018 0
54 -4973 5019 0
-4974 5019 0
54 -4974 5020 0
-4975 5020 0
54 -4975 5021 0
-4976 5021 0
54 -4976 5022 0
-4977 5022 0
54 -4977 5023 0
-4978 5023 0
54 -4978 5024 0
-4979 5024 0
54 -4979 5025 0
-4980 5025 0
54 -4980 5026 0
-4981 5026 0
54 -4981 0
55 5027 0
-4982 5027 0
55 -4982 5028 0
-4983 5028 0
55 -4983 5029 0
-4984 5029 0
55 -4984 5030 0
-4985 5030 0
55 -4985 5031 0
-4986 5031 0
55 -4986 5032 0
-4987 5032 0
55 -4987 5033 0
-4988 5033 0
55 -4988 5034 0
-4989 5034 0
55 -4989 5035 0
-4990 5035 0
55 -4990 5036 0
-4991 5036 0
55 -4991 5037 0
-4992 5037 0
55 -4992 5038 0
-4993 5038 0
55 -4993 5039 0
-4994 5039 0
55 -4994 5040 0
-4995 5040 0
55 -4995 5041 0
-4996 5041 0
55 -4996 5042 0
-4997 5042 0
55 -4997 5043 0
-4998 5043 0
55 -4998 5044 0
-4999 5044 0
55 -4999 5045 0
-5000 5045 0
55 -5000 5046 0
-5001 5046 0
55 -5001 5047 0
-5002 5047 0
55 -5002 5048 0
-5003 5048 0
55 -5003 5049 0
-5004 5049 0
55 -5004 5050 0
-5005 5050 0
55 -5005 5051 0
-5006 5051 0
55 -5006 5052 0
-5007 5052 0
55 -5007 5053 0
-5008 5053 0
55 -5008 5054 0
-5009 5054 0
55 -5009 5055 0
-5010 5055 0
55 -5010 5056 0
-5011 5056 0
55 -5011 5057 0
-5012 5057 0
55 -5012 5058 0
-5013 5058 0
55 -5013 5059 0
-5014 5059 0
55 -5014 5060 0
-5015 5060 0
55 -5015 5061 0
-5016 5061 0
55 -5016 5062 0
-5017 5062 0
55 -5017 5063 0
-5018 5063 0
55 -5018 5064 0
-5019 5064 0
55 -5019 5065 0
-5020 5065 0
55 -5020 5066 0
-5021 5066 0
55 -5021 5067 0
-5022 5067 0
55 -5022 5068 0
-5023 5068 0
55 -5023 5069 0
-5024 5069 0
55 -5024 5070 0
-5025 5070 0
55 -5025 5071 0
-5026 5071 0
55 -5026 0
56 5072 0
-5027 5072 0
56 -5027 5073 0
-5028 5073 0
56 -5028 5074 0
-5029 5074 0
56 -5029 5075 0
-5030 5075 0
56 -5030 5076 0
-5031 5076 0
56 -5031 5077 0
-5032 5077 0
56 -5032 5078 0
-5033 5078 0
56 -5033 5079 0
-5034 5079 0
56 -5034 5080 0
-5035 5080 0
56 -5035 5081 0
-5036 5081 0
56 -5036 5082 0
-5037 5082 0
56 -5037 5083 0
-5038 5083 0
56 -5038 5084 0
-5039 5084 0
56 -5039 5085 0
-5040 5085 0
56 -5040 5086 0
-5041 5086 0
56 -5041 5087 0
-5042 5087 0
56 -5042 5088 0
-5043 5088 0
56 -5043 5089 0
-5044 5089 0
56 -5044 5090 0
-5045 5090 0
56 -5045 5091 0
-5046 5091 0
56 -5046 5092 0
-5047 5092 0
56 -5047 5093 0
-5048 5093 0
56 -5048 5094 0
-5049 5094 0
56 -5049 5095 0
-5050 5095 0
56 -5050 5096 0
-5051 5096 0
56 -5051 5097 0
-5052 5097 0
56 -5052 5098 0
-5053 5098 0
56 -5053 5099 0
-5054 5099 0
56 -5054 5100 0
-5055 5100 0
56 -5055 5101 0
-5056 5101 0
56 -5056 5102 0
-5057 5102 0
56 -5057 5103 0
-5058 5103 0
56 -5058 5104 0
-5059 5104 0
56 -5059 5105 0
-5060 5105 0
56 -5060 5106 0
-5061 5106 0
56 -5061 5107 0
-5062 5107 0
56 -5062 5108 0
-5063 5108 0
56 -5063 5109 0
-5064 5109 0
56 -5064 5110 0
-5065 5110 0
56 -5065 5111 0
-5066 5111 0
56 -5066 5112 0
-5067 5112 0
56 -5067 5113 0
-5068 5113 0
56 -5068 5114 0
-5069 5114 0
56 -5069 5115 0
-5070 5115 0
56 -5070 5116 0
-5071 5116 0
56 -5071 0
57 5117 0
-5072 5117 0
57 -5072 5118 0
-5073 5118 0
57 -5073 5119 0
-5074 5119 0
57 -5074 5120 0
-5075 5120 0
57 -5075 5121 0
-5076 5121 0
57 -5076 5122 0
-5077 5122 0
57 -5077 5123 0
-5078 5123 0
57 -5078 5124 0
-5079 5124 0
57 -5079 5125 0
-5080 5125 0
57 -5080 5126 0
-5081 5126 0
57 -5081 5127 0
-5082 5127 0
57 -5082 5128 0
-5083 5128 0
57 -5083 5129 0
-5084 5129 0
57 -5084 5130 0
-5085 5130 0
57 -5085 5131 0
-5086 5131 0
57 -5086 5132 0
-5087 5132 0
57 -5087 5133 0
-5088 5133 0
57 -5088 5134 0
-5089 5134 0
57 -5089 5135 0
-5090 5135 0
57 -5090 5136 0
-5091 5136 0
57 -5091 5137 0
-5092 5137 0
57 -5092 5138 0
-5093 5138 0
57 -5093 5139 0
-5094 5139 0
57 -5094 5140 0
-5095 5140 0
57 -5095 5141 0
-5096 5141 0
57 -5096 5142 0
-5097 5142 0
57 -5097 5143 0
-5098 5143 0
57 -5098 5144 0
-5099 5144 0
57 -5099 5145 0
-5100 5145 0
57 -5100 5146 0
-5101 5146 0
57 -5101 5147 0
-5102 5147 0
57 -5102 5148 0
-5103 5148 0
57 -5103 5149 0
-5104 5149 0
57 -5104 5150 0
-5105 5150 0
57 -5105 5151 0
-5106 5151 0
57 -5106 5152 0
-5107 5152 0
57 -5107 5153 0
-5108 5153 0
57 -5108 5154 0
-5109 5154 0
57 -5109 5155 0
-5110 5155 0
57 -5110 5156 0
-5111 5156 0
57 -5111 5157 0
-5112 5157 0
57 -5112 5158 0
-5113 5158 0
57 -5113 5159 0
-5114 5159 0
57 -5114 5160 0
-5115 5160 0
57 -5115 5161 0
-5116 5161 0
57 -5116 0
58 5162 0
-5117 5162 0
58 -5117 5163 0
-5118 5163 0
58 -5118 5164 0
-5119 5164 0
58 -5119 5165 0
-5120 5165 0
58 -5120 5166 0
-5121 5166 0
58 -5121 5167 0
-5122 5167 0
58 -5122 5168 0
-5123 5168 0
58 -5123 5169 0
-5124 5169 0
58 -5124 5170 0
-5125 5170 0
58 -5125 5171 0
-5126 5171 0
58 -5126 5172 0
-5127 5172 0
58 -5127 5173 0
-5128 5173 0
58 -5128 5174 0
-5129 5174 0
58 -5129 5175 0
-5130 5175 0
58 -5130 5176 0
-5131 5176 0
58 -5131 5177 0
-5132 5177 0
58 -5132 5178 0
-5133 5178 0
58 -5133 5179 0
-5134 5179 0
58 -5134 5180 0
-5135 5180 0
58 -5135 5181 0
-5136 5181 0
58 -5136 5182 0
-5137 5182 0
58 -5137 5183 0
-5138 5183 0
58 -5138 5184 0
-5139 5184 0
58 -5139 5185 0
-5140 5185 0
58 -5140 5186 0
-5141 5186 0
58 -5141 5187 0
-5142 5187 0
58 -5142 5188 0
-5143 5188 0
58 -5143 5189 0
-5144 5189 0
58 -5144 5190 0
-5145 5190 0
58 -5145 5191 0
-5146 5191 0
58 -5146 5192 0
-5147 5192 0
58 -5147 5193 0
-5148 5193 0
58 -5148 5194 0
-5149 5194 0
58 -5149 5195 0
-5150 5195 0
58 -5150 5196 0
-5151 5196 0
58 -5151 5197 0
-5152 5197 0
58 -5152 5198 0
-5153 5198 0
58 -5153 5199 0
-5154 5199 0
58 -5154 5200 0
-5155 5200 0
58 -5155 5201 0
-5156 5201 0
58 -5156 5202 0
-5157 5202 0
58 -5157 5203 0
-5158 5203 0
58 -5158 5204 0
-5159 5204 0
58 -5159 5205 0
-5160 5205 0
58 -5160 5206 0
-5161 5206 0
58 -5161 0
59 5207 0
-5162 5207 0
59 -5162 5208 0
-5163 5208 0
59 -5163 5209 0
-5164 5209 0
59 -5164 5210 0
-5165 5210 0
59 -5165 5211 0
-5166 5211 0
59 -5166 5212 0
-5167 5212 0
59 -5167 5213 0
-5168 5213 0
59 -5168 5214 0
-5169 5214 0
59 -5169 5215 0
-5170 5215 0
59 -5170 5216 0
-5171 5216 0
59 -5171 5217 0
-5172 5217 0
59 -5172 5218 0
-5173 5218 0
59 -5173 5219 0
-5174 5219 0
59 -5174 5220 0
-5175 5220 0
59 -5175 5221 0
-5176 5221 0
59 -5176 5222 0
-5177 5222 0
59 -5177 5223 0
-5178 5223 0
59 -5178 5224 0
-5179 5224 0
59 -5179 5225 0
-5180 5225 0
59 -5180 5226 0
-5181 5226 0
59 -5181 5227 0
-5182 5227 0
59 -5182 5228 0
-5183 5228 0
59 -5183 5229 0
-5184 5229 0
59 -5184 5230 0
-5185 5230 0
59 -5185 5231 0
-5186 5231 0
59 -5186 5232 0
-5187 5232 0
59 -5187 5233 0
-5188 5233 0
59 -5188 5234 0
-5189 5234 0
59 -5189 5235 0
-5190 5235 0
59 -5190 5236 0
-5191 5236 0
59 -5191 5237 0
-5192 5237 0
59 -5192 5238 0
-5193 5238 0
59 -5193 5239 0
-5194 5239 0
59 -5194 5240 0
-5195 5240 0
59 -5195 5241 0
-5196 5241 0
59 -5196 5242 0
-5197 5242 0
59 -5197 5243 0
-5198 5243 0
59 -5198 5244 0
-5199 5244 0
59 -5199 5245 0
-5200 5245 0
59 -5200 5246 0
-5201 5246 0
59 -5201 5247 0
-5202 5247 0
59 -5202 5248 0
-5203 5248 0
59 -5203 5249 0
-5204 5249 0
59 -5204 5250 0
-5205 5250 0
59 -5205 5251 0
-5206 5251 0
59 -5206 0
1 0
2 0
